LAMMPS (11 Aug 2017)
OMP_NUM_THREADS environment is not set. Defaulting to 1 thread. (../comm.cpp:90)
  using 1 OpenMP thread(s) per MPI task

#==Simulation Settings==#
			#
  units		real    # Define units in Å, fs, Kcal/mol, K, atm
  boundary	p p p	# The simulation cell is periodic in all directions of the space
  dimension 	3	# The simulation cell is 3-Dimensional
  atom_style 	full	# Define the system as a molecular set (atoms with bonds, etc.)
			#
#=======================#

#=========Simulation Variables==========#
					#
  variable	Cutoff	equal	12	# Cutoff Distance (Å)
  variable	T	equal	298.15 	# Temperature (K)
  variable	P	equal	1	# Pressure (atm)
					#
  timestep	2			# Timestep (fs)
  thermo	100			# Print thermo-output each 100 steps
					#
#---------------------------------------#
#== Box Parameters and Molecular PPTs ==#
					#
  variable      X       equal   30.	# x
  variable      Y       equal   30.	# y
  variable      Z       equal   90.	# z dimension length (Å)
					#
  variable      Rho1	equal   0.65478	# Density of Hexane at 25 C (g/cm3)
  variable      PM1	equal   86.1576	# Molar Mass of Hexane (g/mol)
  variable      Rho2	equal   0.99705	# Density of Water at 25 C (g/cm3)
  variable      PM2	equal   18.015	# Molar Mass of Water (g/mol)
  					#
#---------------------------------------#
					#
   molecule mol1 hexane.in 		# Load a molecule file
Read molecule mol1:
  6 atoms with 4 types
  5 bonds with 2 types
  4 angles with 2 types
  3 dihedrals with 1 types
  0 impropers with 0 types
   molecule mol2 water.in 		# Load a molecule file
Read molecule mol2:
  3 atoms with 2 types
  2 bonds with 1 types
  1 angles with 1 types
  0 dihedrals with 0 types
  0 impropers with 0 types
					# (you may add new molecules)
#---------------------------------------------------------------------------------------#
# Calculate the number of molecules to add in the sym box as a function of Rho, PM and  #
# XYZ cell parameters this variable fills 1/2 of the simulation cell (1 var per molec)	#
#---------------------------------------------------------------------------------------#
   variable	N1	equal	floor(${X}*${Y}*(${Z}/3)/1e24*6.023E23*${Rho1}/${PM1})	#
   variable	N1	equal	floor(30*${Y}*(${Z}/3)/1e24*6.023E23*${Rho1}/${PM1})	
   variable	N1	equal	floor(30*30*(${Z}/3)/1e24*6.023E23*${Rho1}/${PM1})	
   variable	N1	equal	floor(30*30*(90/3)/1e24*6.023E23*${Rho1}/${PM1})	
   variable	N1	equal	floor(30*30*(90/3)/1e24*6.023E23*0.65478/${PM1})	
   variable	N1	equal	floor(30*30*(90/3)/1e24*6.023E23*0.65478/86.1576)	
   variable	N2	equal	floor(${X}*${Y}*(${Z}/3)/1e24*6.023E23*${Rho2}/${PM2})	#
   variable	N2	equal	floor(30*${Y}*(${Z}/3)/1e24*6.023E23*${Rho2}/${PM2})	
   variable	N2	equal	floor(30*30*(${Z}/3)/1e24*6.023E23*${Rho2}/${PM2})	
   variable	N2	equal	floor(30*30*(90/3)/1e24*6.023E23*${Rho2}/${PM2})	
   variable	N2	equal	floor(30*30*(90/3)/1e24*6.023E23*0.99705/${PM2})	
   variable	N2	equal	floor(30*30*(90/3)/1e24*6.023E23*0.99705/18.015)	
#=======================================================================================#

#=========================== Box Creation ==============================#
									#
  lattice custom 1. a1 $X 0. 0. a2 0. $Y 0. a3 0. 0. $Z basis 0. 0. 0.	#
  lattice custom 1. a1 30 0. 0. a2 0. $Y 0. a3 0. 0. $Z basis 0. 0. 0.	
  lattice custom 1. a1 30 0. 0. a2 0. 30 0. a3 0. 0. $Z basis 0. 0. 0.	
  lattice custom 1. a1 30 0. 0. a2 0. 30 0. a3 0. 0. 90 basis 0. 0. 0.	
Lattice spacing in x,y,z = 30 30 90
  region sym block 0 1 0 1 0 1 units lattice				#
  create_box 4 sym bond/types 2 angle/types 2 dihedral/types 1 extra/bond/per/atom 10 extra/angle/per/atom 10 extra/dihedral/per/atom 40 extra/special/per/atom 25
Created orthogonal box = (0 0 0) to (30 30 90)
  1 by 1 by 1 MPI processor grid
									#
#=============== Region Definition & Atom Creation======================#
									#
   region  Oil		block 	0  1   0   1   0   0.33 units lattice	# cubic region
   create_atoms 0	random  ${N1}	238271	Oil   mol mol1 151229	# add molecs to that region
   create_atoms 0	random  123	238271	Oil   mol mol1 151229	
WARNING: Molecule attributes do not match system attributes (../molecule.cpp:1369)
Created 738 atoms
   region  Water	block 	0  1   0   1   0.5   0.83 units lattice	# cubic region
   create_atoms 0	random  ${N2}	917419  Water mol mol2 616351	# add molecs to that region
   create_atoms 0	random  900	917419  Water mol mol2 616351	
WARNING: Molecule attributes do not match system attributes (../molecule.cpp:1369)
Created 2700 atoms
									# (you may add new regions
#=======================================================================# and new create_atoms)

#=======================================================================================#
											#
  variable	IFT	equal	(-((zhi-zlo)/2.0)*(((pxx+pyy)/2.0)-pzz))*0.0101325 	# Calculate IFT
  variable      TotEng  equal etotal							# Calculate Etotal
  fix averages  all     ave/time 1 10000 10000 	v_TotEng v_IFT 	file lammps.ave		#
											#
  dump 		trj all xyz 10000 lammps.xyz     					# Write traj. each 10000 timesteps
  thermo_style 	custom step temp press vol pe ke etotal	v_IFT				# What to print (you may add new keys)
											#
#=======================================================================================#

#======= Minimization Process With Soft Potential ======#
							#
  include	potential.ff				# Load the whole FF
# Force Field parameters file containing:

# --------------
# | FOR STYLES |
# --------------
#========================================================
#  pair_style      	lj/cut  ${Cutoff}		# <- Comment for charged systems
  pair_style      	lj/cut/coul/long ${Cutoff}	# <- Unccoment for charged systems
  pair_style      	lj/cut/coul/long 12	
  kspace_style		pppm	1e-3			# <- Uncomment for charged systems
  bond_style    	harmonic			#
  angle_style   	harmonic			#
  dihedral_style	opls				#
  improper_style	none				#
#========================================================

# ------------------
# | FOR ATOM TYPES |
# ------------------
# type 1 : O (water)
# type 2 : H (water)
# type 3 : CH3 (Terminal Aliphatic UA)
# type 4 : CH2 (Aliphatic UA)
#================================================
  mass  1               15.99940		#
  mass  2               1.007970		#
  mass  3               15.03461		#
  mass  4               14.02660		#
#-----------------------------------------------#
  set type	1 charge	-0.82 		#
  900 settings made for charge
  set type	2 charge	 0.41 		#
  1800 settings made for charge
  set type	3 charge	 0.00 		#
  246 settings made for charge
  set type	4 charge	 0.00 		#
  492 settings made for charge
#-----------------------------------------------#
						#
# LJ potential:   i  j   eps      sig		#
#-----------------------------------------------#
  pair_coeff      1  1	0.1554  3.16557		#
  pair_coeff      2  2	0.0000  0.00000		#
  pair_coeff      3  3	0.1750  3.90500		#
  pair_coeff      4  4	0.1180	3.90500		#
						#
  pair_modify tail yes mix arithmetic		#
#================================================

# ------------------
# | FOR BOND TYPES |
# ------------------
# type 1 : O-H (water)
# type 2 : CHx-CHx (Generic Aliphatic UA)
#================================================
  bond_coeff            1	450.0	1       #
  bond_coeff		2	260.0	1.526   #
#================================================

# -------------------
# | FOR ANGLE TYPES |
# -------------------
# type 1 : H-O-H (water)
# type 2 : CHx-CHx-CHx (Generic Aliphatic UA)
#================================================
  angle_coeff           1	55.0	109.47  #
  angle_coeff           2	63.0	112.40  #
#================================================

# ----------------------
# | FOR DIHEDRAL TYPES |
# ----------------------
# type 1 : CHx-CHx-CHx-CHx (Generic Aliphatic UA)
#====================================================
  dihedral_coeff        1	-3.40 1.25 3.10 0.0 #
#====================================================

# ----------------------
# | FOR IMPROPER TYPES |
# ----------------------
# no improper types
#====================================================
#====================================================

# --------------------------
# | FOR SPECIAL CONDITIONS |
# --------------------------
# Apply SHAKE to water molecules
#====================================================
  group	water	type 1 2
2700 atoms in group water
  fix SPC water shake 1e-4 50 0 b 1 a 1 mol mol2
  0 = # of size 2 clusters
  0 = # of size 3 clusters
  0 = # of size 4 clusters
  900 = # of frozen angles
#====================================================


							#
  pair_style 	soft 	3				# Change the LJ pair by Soft
  pair_coeff 	* * 	1				# Soft parameters
  kspace_style 	none					# Erase the long range coulombics
							#
  fix label1 all rigid/nvt molecule temp 10 10 200	# Time evolution scheme
1023 rigid bodies with 3438 atoms
    run 10000						# run during 10000 steps
Neighbor list info ...
  update every 1 steps, delay 10 steps, check yes
  max neighbors/atom: 2000, page size: 100000
  master list distance cutoff = 5
  ghost atom cutoff = 5
  binsize = 2.5, bins = 12 12 36
  1 neighbor lists, perpetual/occasional/extra = 1 0 0
  (1) pair soft, perpetual
      attributes: half, newton on
      pair build: half/bin/newton
      stencil: half/bin/3d/newton
      bin: standard
Per MPI rank memory allocation (min/avg/max) = 26.11 | 26.11 | 26.11 Mbytes
Step Temp Press Volume PotEng KinEng TotEng v_IFT 
       0            0    3262.6133        81000    6526.9894            0    6526.9894   -2233.3436 
     100    511.56831    2679.2317        81000    1313.1682    1745.9967    3059.1649   -1011.2183 
     200    258.29782    1821.2944        81000     680.2724    881.57758      1561.85    -888.9824 
     300    159.65425    1278.8066        81000    409.09053    544.90434    953.99487   -745.13241 
     400    110.62413    904.26617        81000    264.71862    377.56319    642.28181   -659.94589 
     500    81.170202    655.80182        81000    181.60219    277.03613    458.63832    -510.4715 
     600    62.871771    458.77403        81000    127.09004    214.58308    341.67313   -417.45002 
     700     51.12798    311.87388        81000    88.112248     174.5012    262.61345   -332.69343 
     800    40.576061    232.63073        81000    69.490765    138.48721    207.97798   -280.07609 
     900    33.985378    168.94931        81000    54.482666    115.99303    170.47569   -211.40851 
    1000    28.712198    137.70706        81000    46.540331    97.995521    144.53585   -182.85107 
    1100    25.269756    112.64745        81000    40.474395    86.246371    126.72077   -141.98171 
    1200    22.719669    98.742555        81000    37.444568    77.542855    114.98742   -133.81913 
    1300    21.065536    99.947943        81000    35.870095    71.897255    107.76735   -96.812249 
    1400     20.15273    88.092969        81000    33.838625    68.781822    102.62045    -96.71381 
    1500    19.314364    85.229883        81000    32.906031    65.920455    98.826486   -92.422481 
    1600    18.662964    86.939917        81000    32.307712    63.697208    96.004921   -79.352913 
    1700    18.420806      77.1576        81000    31.165446    62.870716    94.036162   -59.144186 
    1800    17.933272    83.451937        81000    31.359349    61.206751      92.5661   -48.918326 
    1900    17.784926    79.042994        81000    30.905066    60.700442    91.605508   -57.210207 
    2000    17.833162    72.609274        81000      30.0839    60.865071    90.948971   -51.463524 
    2100    17.774833    72.249946        81000    29.742936    60.665995    90.408931   -53.548523 
    2200     17.64232    74.945739        81000    30.011355    60.213723    90.225077    -24.04538 
    2300    17.602828     72.71014        81000    29.946282    60.078937    90.025219   -35.119905 
    2400    17.722106    77.251047        81000    29.535136    60.486037    90.021173   -26.862966 
    2500    17.999552    69.525348        81000    28.699116    61.432967    90.132082   -27.065918 
    2600    17.722189    79.368035        81000    29.482945    60.486317    89.969262    -15.84037 
    2700    17.738069    82.197979        81000    29.590118    60.540518    90.130636   -16.086041 
    2800    17.885478     81.81543        81000    29.215153     61.04363    90.258783   -10.208825 
    2900    17.958206    79.623901        81000    29.009049    61.291852    90.300901   -3.1518303 
    3000    18.125794    80.085747        81000    28.887888    61.863832     90.75172   -9.4420223 
    3100    17.962062    75.472698        81000    29.530671    61.305011    90.835681   -21.532156 
    3200    17.842691    84.291163        81000    29.783338    60.897597    90.680935   -13.511378 
    3300    17.978232     83.76436        81000    29.514265    61.360202    90.874467   -6.0212026 
    3400    18.030787    76.444704        81000    29.002763     61.53957    90.542333   -5.9281644 
    3500    17.707325    90.824059        81000    30.065032    60.435587    90.500618   -2.4461762 
    3600    18.095757    83.239153        81000    29.584605    61.761317    91.345922   -7.8847218 
    3700    17.867565      83.0347        81000    29.504595    60.982493    90.487087   -6.3591107 
    3800    17.847233    85.039078        81000    29.755426    60.913098    90.668524   -7.0594621 
    3900    17.888387    85.056437        81000    29.754902    61.053557    90.808459   -12.826199 
    4000    17.743108    88.859037        81000    29.981436    60.557717    90.539153    -4.823987 
    4100    18.047731    79.642782        81000    29.389443    61.597402    90.986845   -6.1303031 
    4200    17.517363    81.811639        81000    30.440228     59.78724    90.227469   -6.2287921 
    4300    17.653012    96.600658        81000     29.76231    60.250214    90.012525    9.7024984 
    4400    18.308388    102.24412        81000     29.43495    62.487033    91.921983    14.433384 
    4500    18.020939    83.267143        81000    29.974923    61.505962    91.480885   -6.8768288 
    4600    17.837059    85.031836        81000    29.737144    60.878372    90.615516    1.3494436 
    4700    18.161682    85.097505        81000    29.743125    61.986319    91.729445  -0.30765609 
    4800    18.048684     83.38097        81000    29.539269    61.600654    91.139923   -5.5851157 
    4900    17.669005    95.399179        81000    30.516903    60.304802    90.821704    7.1665444 
    5000    17.889546    95.279331        81000    30.315344    61.057514    91.372857      14.9207 
    5100    17.818457    87.454093        81000    30.144926    60.814884     90.95981   -13.335698 
    5200    17.449539    92.091021        81000    30.824882    59.555756    90.380638   -4.9847065 
    5300    17.760221     95.27884        81000    30.273495    60.616121    90.889616    10.716444 
    5400    18.390501    95.430266        81000    29.816666    62.767286    92.583952    10.577717 
    5500    17.890245    86.071601        81000    30.463958    61.059898    91.523856   -3.1653086 
    5600    17.789392    96.632002        81000    30.900522    60.715684    91.616206    8.3527875 
    5700    18.424286    100.75547        81000    30.575477    62.882596    93.458072    12.794506 
    5800     18.14494    98.004203        81000    30.623311     61.92918     92.55249   -10.431438 
    5900    17.518599    87.081031        81000    30.487742    59.791462    90.279204   -17.893223 
    6000    17.399735    97.974362        81000    30.727206    59.385775    90.112981   0.10030086 
    6100    17.834846     108.2574        81000    31.504063     60.87082    92.374883    4.7671891 
    6200    18.264105    103.07117        81000    31.527767    62.335891    93.863659    1.4988009 
    6300    17.990694    98.502156        81000    30.995589    61.402733    92.398322   -4.0010402 
    6400     17.87748    92.475578        81000    30.408888     61.01633    91.425219    1.5380613 
    6500    17.980528    87.639018        81000    29.559252    61.368036    90.927288    1.7310631 
    6600    17.519442     98.13736        81000    30.725762    59.794338    90.520099   0.39236908 
    6700     17.80788    110.39744        81000    31.033534    60.778785    91.812319    8.2542021 
    6800    18.151747    108.60563        81000    31.820887    61.952414      93.7733    12.242137 
    6900    17.890746    104.96754        81000    31.698932     61.06161    92.760542   -3.6280282 
    7000    17.421936    99.972385        81000    31.041038    59.461548    90.502586   0.53884984 
    7100    17.081939    102.73552        81000    31.174191    58.301128    89.475319    17.762576 
    7200    18.258573    100.03976        81000     30.90762     62.31701    93.224631    4.1116026 
    7300    18.079823    102.29879        81000    31.567785    61.706933    93.274718   -2.9604611 
    7400    17.851072    98.124932        81000    31.223328      60.9262    92.149527  0.003511588 
    7500    17.548241    103.14913        81000    31.367912    59.892631    91.260543    11.900934 
    7600    17.851042    101.31907        81000    31.117431    60.926098    92.043529    1.3360228 
    7700    18.045949     107.4401        81000    32.122312    61.591321    93.713633    1.9356317 
    7800    17.957507    107.25233        81000    30.988232    61.289466    92.277698    1.9810309 
    7900    17.456412    107.61334        81000    31.615412    59.579215    91.194627   -5.4009707 
    8000    17.813332    111.30387        81000    31.592041    60.797392    92.389433   -6.6344758 
    8100    18.022774    109.14972        81000    31.670515    61.512223    93.182738   -2.4586121 
    8200    17.531863    108.94814        81000    32.212103     59.83673    92.048833    0.5324253 
    8300    17.450614    104.63826        81000    31.444625    59.559427    91.004052   -3.4669337 
    8400     17.81544    106.36528        81000    31.024882    60.804587    91.829469   -3.0889516 
    8500    18.385328    102.18322        81000    30.974129    62.749631     93.72376    8.4886135 
    8600    17.835311    104.34487        81000    31.530367    60.872407    92.402774    8.1674148 
    8700    17.323388    102.58996        81000    31.331777    59.125201    90.456977    4.9681964 
    8800    17.579869    104.28824        81000    30.959552    60.000575    90.960127   -12.646905 
    8900    17.958873     112.4479        81000    32.231195    61.294127    93.525322    5.9395043 
    9000     18.34204    108.32412        81000    31.789714    62.601887    94.391602    6.4125641 
    9100    18.284353    97.827582        81000    30.481209       62.405    92.886209    5.9020868 
    9200    17.334984     105.8466        81000    31.869871    59.164776    91.034646  -0.31857952 
    9300    17.393351    101.41822        81000    30.750958    59.363985    90.114943   0.69940898 
    9400    17.624925    100.42828        81000     31.30786    60.154353    91.462213   -5.6418084 
    9500    18.210696    99.648114        81000    30.581043    62.153605    92.734648  -0.77471119 
    9600    17.795448    101.77409        81000    31.060128    60.736353    91.796481     3.236249 
    9700    17.552866    95.122283        81000    30.124016    59.908413    90.032429    6.7370111 
    9800    17.363319    92.467163        81000    29.897607    59.261485    89.159092    -2.100959 
    9900    17.506654    93.501895        81000    30.323533    59.750691    90.074224    -4.093088 
   10000    18.083605    99.929221        81000    30.491134    61.719842    92.210975   -8.6685352 
Loop time of 15.0005 on 1 procs for 10000 steps with 3438 atoms

Performance: 115.196 ns/day, 0.208 hours/ns, 666.644 timesteps/s
99.0% CPU use with 1 MPI tasks x 1 OpenMP threads

MPI task timing breakdown:
Section |  min time  |  avg time  |  max time  |%varavg| %total
---------------------------------------------------------------
Pair    | 3.0968     | 3.0968     | 3.0968     |   0.0 | 20.64
Bond    | 1.8881     | 1.8881     | 1.8881     |   0.0 | 12.59
Neigh   | 0.72477    | 0.72477    | 0.72477    |   0.0 |  4.83
Comm    | 0.59577    | 0.59577    | 0.59577    |   0.0 |  3.97
Output  | 0.0066538  | 0.0066538  | 0.0066538  |   0.0 |  0.04
Modify  | 8.5903     | 8.5903     | 8.5903     |   0.0 | 57.27
Other   |            | 0.09814    |            |       |  0.65

Nlocal:    3438 ave 3438 max 3438 min
Histogram: 1 0 0 0 0 0 0 0 0 0
Nghost:    3313 ave 3313 max 3313 min
Histogram: 1 0 0 0 0 0 0 0 0 0
Neighs:    34918 ave 34918 max 34918 min
Histogram: 1 0 0 0 0 0 0 0 0 0

Total # of neighbors = 34918
Ave neighs/atom = 10.1565
Ave special neighs/atom = 2.42932
Neighbor list builds = 239
Dangerous builds = 6
  unfix label1 						# Erase time evolution scheme
							#
#========= Simulation With Appropiate Potential ========#
							#
  include	potential.ff				# Load the whole FF
# Force Field parameters file containing:

# --------------
# | FOR STYLES |
# --------------
#========================================================
#  pair_style      	lj/cut  ${Cutoff}		# <- Comment for charged systems
  pair_style      	lj/cut/coul/long ${Cutoff}	# <- Unccoment for charged systems
  pair_style      	lj/cut/coul/long 12	
  kspace_style		pppm	1e-3			# <- Uncomment for charged systems
  bond_style    	harmonic			#
  angle_style   	harmonic			#
  dihedral_style	opls				#
  improper_style	none				#
#========================================================

# ------------------
# | FOR ATOM TYPES |
# ------------------
# type 1 : O (water)
# type 2 : H (water)
# type 3 : CH3 (Terminal Aliphatic UA)
# type 4 : CH2 (Aliphatic UA)
#================================================
  mass  1               15.99940		#
  mass  2               1.007970		#
  mass  3               15.03461		#
  mass  4               14.02660		#
#-----------------------------------------------#
  set type	1 charge	-0.82 		#
  900 settings made for charge
  set type	2 charge	 0.41 		#
  1800 settings made for charge
  set type	3 charge	 0.00 		#
  246 settings made for charge
  set type	4 charge	 0.00 		#
  492 settings made for charge
#-----------------------------------------------#
						#
# LJ potential:   i  j   eps      sig		#
#-----------------------------------------------#
  pair_coeff      1  1	0.1554  3.16557		#
  pair_coeff      2  2	0.0000  0.00000		#
  pair_coeff      3  3	0.1750  3.90500		#
  pair_coeff      4  4	0.1180	3.90500		#
						#
  pair_modify tail yes mix arithmetic		#
#================================================

# ------------------
# | FOR BOND TYPES |
# ------------------
# type 1 : O-H (water)
# type 2 : CHx-CHx (Generic Aliphatic UA)
#================================================
  bond_coeff            1	450.0	1       #
  bond_coeff		2	260.0	1.526   #
#================================================

# -------------------
# | FOR ANGLE TYPES |
# -------------------
# type 1 : H-O-H (water)
# type 2 : CHx-CHx-CHx (Generic Aliphatic UA)
#================================================
  angle_coeff           1	55.0	109.47  #
  angle_coeff           2	63.0	112.40  #
#================================================

# ----------------------
# | FOR DIHEDRAL TYPES |
# ----------------------
# type 1 : CHx-CHx-CHx-CHx (Generic Aliphatic UA)
#====================================================
  dihedral_coeff        1	-3.40 1.25 3.10 0.0 #
#====================================================

# ----------------------
# | FOR IMPROPER TYPES |
# ----------------------
# no improper types
#====================================================
#====================================================

# --------------------------
# | FOR SPECIAL CONDITIONS |
# --------------------------
# Apply SHAKE to water molecules
#====================================================
  group	water	type 1 2
2700 atoms in group water
  fix SPC water shake 1e-4 50 0 b 1 a 1 mol mol2
  0 = # of size 2 clusters
  0 = # of size 3 clusters
  0 = # of size 4 clusters
  900 = # of frozen angles
#====================================================


  fix label1 all npt temp $T $T 200 z $P $P 1000	# Time evolution scheme
  fix label1 all npt temp 298.15 $T 200 z $P $P 1000	
  fix label1 all npt temp 298.15 298.15 200 z $P $P 1000	
  fix label1 all npt temp 298.15 298.15 200 z 1 $P 1000	
  fix label1 all npt temp 298.15 298.15 200 z 1 1 1000	
    run 200000						# run during 200000 steps
PPPM initialization ...
WARNING: Using 12-bit tables for long-range coulomb (../kspace.cpp:321)
  G vector (1/distance) = 0.167417
  grid = 8 8 16
  stencil order = 5
  estimated absolute RMS force accuracy = 0.260547
  estimated relative force accuracy = 0.000784631
  using double precision FFTs
  3d grid and FFT values/proc = 3549 1024
Neighbor list info ...
  update every 1 steps, delay 10 steps, check yes
  max neighbors/atom: 2000, page size: 100000
  master list distance cutoff = 14
  ghost atom cutoff = 14
  binsize = 7, bins = 5 5 13
  1 neighbor lists, perpetual/occasional/extra = 1 0 0
  (1) pair lj/cut/coul/long, perpetual
      attributes: half, newton on
      pair build: half/bin/newton
      stencil: half/bin/3d/newton
      bin: standard
Per MPI rank memory allocation (min/avg/max) = 51.94 | 51.94 | 51.94 Mbytes
Step Temp Press Volume PotEng KinEng TotEng v_IFT 
   10000    8.1615009    18537.562        81000    3509.8816    61.719842    3571.6014   -1023.3786 
   10100    669.30767    1493.3332    83970.486   -2983.3287    5061.5155    2078.1868   -40.005458 
   10200    577.20674    1505.7791    86346.854   -4316.4438    4365.0192    48.575433    192.78606 
   10300    485.63272    30.187267    87647.967    -5275.128    3672.5077   -1602.6203    -62.09986 
   10400    406.38605    596.81623    88118.638   -5933.0484    3073.2194   -2859.8291    348.23311 
   10500    358.73221   -947.85565    88128.833   -6509.8952     2712.846   -3797.0492   -188.59741 
   10600    338.97867    -387.6592    87344.564     -7071.62    2563.4635   -4508.1565     150.7463 
   10700    317.66341   -1079.0909    86475.928   -7472.9832    2402.2708   -5070.7124    75.611525 
   10800    300.07129   -995.96834    85491.525    -7740.869    2269.2337   -5471.6353   -72.785601 
   10900    286.15497   -575.81262    84421.105   -7911.1666     2163.994   -5747.1726    350.20392 
   11000    292.39448   -358.28058    83496.017   -8074.3444    2211.1792   -5863.1652   -12.719187 
   11100    288.49762   -515.92563    82725.859   -8041.4883    2181.7099   -5859.7784    244.30484 
   11200    302.95318   -755.24404    81954.938   -8083.8819    2291.0274   -5792.8545    99.689723 
   11300    306.80827   -950.76109    81085.142   -8113.0145    2320.1808   -5792.8337    134.14051 
   11400    303.09634   -1055.2429    80215.336   -8155.4917    2292.1101   -5863.3816   -117.49237 
   11500    298.75364   -819.94522    79418.436   -8251.8226    2259.2691   -5992.5535    63.237065 
   11600    287.90529   -567.86141    78576.319   -8308.1798    2177.2306   -6130.9493    169.62243 
   11700    291.34201   -504.23746     77803.86   -8405.7964    2203.2201   -6202.5763   -135.43842 
   11800    290.92931   -446.65842    77214.021   -8391.7899    2200.0991   -6191.6908    160.86511 
   11900    302.32587   -129.57713    76732.912   -8454.5259    2286.2835   -6168.2424    249.32723 
   12000    302.94158   -1175.5208    76175.028   -8432.7942    2290.9396   -6141.8545    41.997999 
   12100    301.59239   -1076.3765    75301.124   -8426.7677    2280.7367    -6146.031     174.6058 
   12200    304.05209   -453.11036    74615.678   -8509.6825    2299.3377   -6210.3448   -15.827776 
   12300    292.68661   -531.97363    74077.192   -8526.6555    2213.3884   -6313.2671     86.39844 
   12400    292.07262   -304.82235    73355.843   -8596.9008    2208.7451   -6388.1557    170.42674 
   12500    292.38674   -184.48034    72802.141   -8631.7429    2211.1206   -6420.6223    46.177188 
   12600    299.41393   -217.40988    72344.368   -8715.4106    2264.2625   -6451.1481   -95.861568 
   12700     299.3759   -779.53836    71908.351   -8740.1169    2263.9749   -6476.1421   -3.1017423 
   12800    290.52469   -623.24292    71547.982   -8705.7566    2197.0392   -6508.7174   -140.43737 
   12900    288.70625   -528.74233    71211.453   -8685.9255    2183.2876   -6502.6378    126.14736 
   13000    298.79626    121.34356    71017.684   -8698.2891    2259.5915   -6438.6977   -58.386324 
   13100    304.03417   -324.64287    70802.689   -8737.1389    2299.2022   -6437.9367   -120.96022 
   13200     292.2859    114.64945    70402.832   -8745.4467    2210.3581   -6535.0886    272.81076 
   13300    292.89492   -766.98825    69946.387    -8790.083    2214.9637   -6575.1193    235.95143 
   13400    307.55713   -929.92294    69366.888   -8877.6033    2325.8439   -6551.7593    33.825301 
   13500    299.45444   -252.35433    68856.177   -8791.6453    2264.5688   -6527.0764    19.778331 
   13600    300.60179   -571.92094    68570.136   -8823.7791    2273.2455   -6550.5336    23.762586 
   13700    297.73252   -466.65053    68241.551   -8843.3474    2251.5471   -6591.8003    291.48433 
   13800     297.8204   -228.45461    67887.061   -8904.2758    2252.2117   -6652.0641    348.55747 
   13900    295.02231   -221.42974    67598.994   -8924.1134    2231.0516   -6693.0618   -94.293075 
   14000    295.07891   -772.47076    67211.242   -8937.3816    2231.4797   -6705.9019    176.23827 
   14100    296.00238   -152.46709      66845.5   -8910.1277    2238.4633   -6671.6644     260.1341 
   14200    299.95839   -329.44455    66601.032   -8875.8473    2268.3799   -6607.4674   -43.840281 
   14300    316.09607   -920.31334    66402.048   -8959.9783    2390.4181   -6569.5602   -79.398069 
   14400    298.75895   -384.12137    66013.929   -8898.0912    2259.3093   -6638.7819    61.287615 
   14500    296.81537   -174.62006    65546.946   -8982.6762    2244.6113   -6738.0649    396.88927 
   14600    295.66307     445.9062     65257.62   -9042.6412    2235.8973   -6806.7439   -94.755315 
   14700    296.74045   -315.29757    64960.706     -9093.55    2244.0448   -6849.5052    202.90927 
   14800    293.50253    97.710089    64698.616   -9088.1113    2219.5586   -6868.5527    136.42222 
   14900    298.45349   -259.58506    64498.458   -9119.0472    2256.9993   -6862.0479    10.312857 
   15000    300.95502   -132.15637    64358.019   -9137.2338    2275.9167   -6861.3171    47.046514 
   15100    294.80199   -67.174747    64243.262    -9048.445    2229.3856   -6819.0595   -65.649219 
   15200    302.17824    214.53511    63834.421   -9054.3953     2285.167   -6769.2283    176.08888 
   15300    301.64775   -124.71766    63400.014   -9039.7552    2281.1553   -6758.5999    8.9753175 
   15400    304.10389    293.66249    63058.982   -9080.0882    2299.7294   -6780.3588    398.40367 
   15500    295.35354   -339.32282    63117.422   -9087.3312    2233.5565   -6853.7747   -100.28603 
   15600    292.58615   -489.16669    63208.847   -9112.9975    2212.6287   -6900.3688    9.0621676 
   15700    293.59099   -30.258557    63016.574   -9112.6907    2220.2276   -6892.4631    74.459366 
   15800    299.49696   -90.684562    62658.246   -9097.8972    2264.8904   -6833.0068    149.53863 
   15900    301.53349   -507.03141    62255.972   -9096.8669    2280.2913   -6816.5756    193.88141 
   16000    300.96401   -606.92955    61866.405   -9119.1709    2275.9847   -6843.1862   -202.18952 
   16100     294.0214   -320.83286    61376.018    -9108.712    2223.4824   -6885.2296    21.446583 
   16200     300.0614   -453.42255    60873.513   -9195.2975    2269.1588   -6926.1387    133.71836 
   16300    298.34937   -358.99856    60701.007   -9139.4305    2256.2119   -6883.2186   -2.2823522 
   16400    300.82015   -351.97184    60568.319   -9125.3914    2274.8967   -6850.4947    102.10672 
   16500    304.46583   -7.2078514    60354.093    -9148.407    2302.4665   -6845.9405   -141.71877 
   16600    295.27212    85.483762    60220.152   -9107.8231    2232.9408   -6874.8823     328.4235 
   16700    291.79169   -471.92134     60134.41   -9132.3058    2206.6207   -6925.6851    107.85924 
   16800    302.21443   -614.28498    59824.104   -9239.2508    2285.4407   -6953.8101   -196.67523 
   16900    298.80742      -42.216    59428.255   -9239.0784    2259.6758   -6979.4026    92.589175 
   17000    300.15117    -422.0684    59148.144    -9232.755    2269.8377   -6962.9173    312.09896 
   17100    296.48496   -558.01417    58887.397   -9162.0185    2242.1127   -6919.9059   -7.4503703 
   17200    291.23939     -2.79588    58606.708   -9132.9378     2202.444   -6930.4938    -7.771046 
   17300    292.20105   -194.23946    58415.847   -9171.8543    2209.7164   -6962.1379    342.30852 
   17400      295.675   -353.06316    58286.762   -9227.0365    2235.9875    -6991.049    -88.58745 
   17500    293.40872   -325.13334    58037.118   -9209.8142    2218.8492   -6990.9649    127.13656 
   17600    303.35396   -267.31768    57838.613   -9296.4627    2294.0582   -7002.4045   -156.39838 
   17700    299.54129     -196.426    57610.447   -9330.6824    2265.2256   -7065.4568    32.460197 
   17800    295.90585   -455.06749    57451.409   -9346.8562    2237.7333   -7109.1229   -15.911661 
   17900    286.31887   -252.68794    57270.345   -9267.1909    2165.2336   -7101.9574    250.01698 
   18000    300.28351   -113.04322    57076.647   -9274.1873    2270.8385   -7003.3489     228.3768 
   18100    303.52531   -149.47046    57042.696    -9257.271    2295.3541   -6961.9169    362.31738 
   18200    298.34236   -166.44872    57116.864    -9243.093    2256.1589    -6986.934    91.743202 
   18300    295.95888   -347.00063    56953.441   -9268.3697    2238.1343   -7030.2354    136.06178 
   18400    293.78397   -411.12415     56643.44   -9281.2347     2221.687   -7059.5478    117.03155 
   18500    298.81166    117.47463    56354.982   -9331.2004    2259.7079   -7071.4925    169.41195 
   18600    300.51139    175.94433    56349.818   -9334.6624    2272.5618   -7062.1006    93.339911 
   18700     303.8293   -140.33816    56492.795   -9370.8438    2297.6529   -7073.1909   -93.620027 
   18800     293.1694   -66.416764    56552.837   -9312.7202    2217.0394   -7095.6808   -56.452347 
   18900    296.47949   -468.73351     56394.97   -9320.9384    2242.0713   -7078.8671   -35.409527 
   19000      300.068    61.416363     56102.21    -9289.038    2269.2088   -7019.8292    343.26938 
   19100    299.12222    1.3518374    56034.278   -9266.6342    2262.0565   -7004.5777    -158.9863 
   19200    303.94166   -82.599586    56036.455   -9291.6692    2298.5026   -6993.1667   -33.852119 
   19300    293.61964     306.6883    56000.393   -9295.5315    2220.4442   -7075.0873    125.37874 
   19400    293.54197     352.8212    55915.913   -9350.2456    2219.8568   -7130.3888    57.155351 
   19500    288.71577   -838.06892    55761.116   -9346.6327    2183.3596   -7163.2731    72.650902 
   19600    293.09898   -369.40957     55624.94   -9345.5481    2216.5068   -7129.0413    265.89595 
   19700    300.73259     269.2268    55661.092   -9349.8138    2274.2346   -7075.5792   -112.53057 
   19800    300.58301   -533.37718    55690.096   -9348.6464    2273.1034   -7075.5429    64.094627 
   19900    300.38861   -170.11159    55697.169   -9389.0209    2271.6333   -7117.3876   -50.756151 
   20000    296.74206   -139.15828    55697.215   -9422.1343     2244.057   -7178.0774    32.184704 
   20100    300.42101   -10.062484    55578.705    -9479.015    2271.8783   -7207.1367    170.06865 
   20200    299.20998    135.63061    55435.148   -9477.7403    2262.7202   -7215.0202   -69.438817 
   20300    294.02691   -603.15438    55258.222   -9467.6225    2223.5242   -7244.0983    274.21993 
   20400    297.62233   -423.29952    55180.875   -9490.5117    2250.7138   -7239.7979    179.36374 
   20500    292.52038   -206.60208    55172.395   -9409.2778    2212.1313   -7197.1465    62.076418 
   20600    302.31886   -27.683624    55219.625   -9410.2155    2286.2305   -7123.9851  -0.57813957 
   20700    298.25332   -89.376967    55365.929   -9372.8384    2255.4856   -7117.3528   -198.85051 
   20800    295.23486    363.14973     55335.02   -9376.3473    2232.6591   -7143.6882   -144.12176 
   20900    298.47595   -271.06807    55260.869   -9505.0319    2257.1692   -7247.8627    170.14993 
   21000    293.42314   -368.35711    55257.697    -9472.897    2218.9583   -7253.9387   -70.487298 
   21100     301.7207   -168.82333    55301.152   -9499.5708     2281.707   -7217.8638   -163.78897 
   21200    296.58159   -111.42645    55447.988   -9424.0727    2242.8434   -7181.2293    286.78204 
   21300    292.22625   -148.14475    55804.963   -9376.4482     2209.907   -7166.5412    41.547324 
   21400    293.77981   -464.54254    55910.714   -9371.1679    2221.6555   -7149.5124   -26.323218 
   21500    301.06622    85.348355    55694.364   -9397.0888    2276.7576   -7120.3312   -109.76139 
   21600    301.55081   -161.73441    55603.269   -9439.5795    2280.4222   -7159.1572     31.04313 
   21700    293.07974   -76.635265    55647.228   -9452.8428    2216.3614   -7236.4815    65.706106 
   21800    290.97973   -163.02712    55886.802   -9469.5524    2200.4804    -7269.072    174.43834 
   21900    293.19056   -286.28289    56129.899   -9416.5814    2217.1994    -7199.382   -12.488533 
   22000    303.31993   -603.78984    56176.236   -9459.6926    2293.8009   -7165.8918    52.896796 
   22100    294.86253   -78.255929    55949.888   -9355.8931    2229.8434   -7126.0498   -147.33769 
   22200     302.3147   -107.62602    55552.658   -9355.0513    2286.1991   -7068.8522    167.30033 
   22300    293.68235    422.11352    55300.468    -9332.747    2220.9184   -7111.8286   -165.02234 
   22400    298.75859   -219.47715    55285.279   -9483.7634    2259.3066   -7224.4569   -57.347465 
   22500    294.92492    -174.6759    55374.441   -9471.9294    2230.3151   -7241.6143   -254.39219 
   22600    294.84901   -359.27704    55456.078   -9470.4876    2229.7411   -7240.7465    42.203654 
   22700    298.08048    676.85051    55722.749   -9416.0949    2254.1785   -7161.9164   -237.43823 
   22800    297.62812    40.181427    56126.516   -9355.5354    2250.7576   -7104.7778    8.5937727 
   22900    299.35965   -311.19496    56583.119   -9382.9322     2263.852   -7119.0802   -211.34951 
   23000    299.53414   -407.95764     56814.67   -9389.8341    2265.1716   -7124.6626    148.92091 
   23100    295.57728   -772.78064    56862.409   -9445.4228    2235.2485   -7210.1743    48.750946 
   23200    290.18214   -324.61603    56947.384   -9484.9766    2194.4488   -7290.5278   -145.35941 
   23300    292.80766   -569.33888    57023.178   -9498.8598    2214.3038    -7284.556    183.64977 
   23400    300.17886   -363.01303    56885.983   -9496.0055    2270.0471   -7225.9584   -70.981504 
   23500    295.54009   -283.79824    56448.724   -9405.3494    2234.9673   -7170.3821    92.844875 
   23600     304.7659    141.96489    56077.429   -9422.9434    2304.7358   -7118.2076   -196.16825 
   23700     298.7431   -188.90049    55929.194   -9371.4399    2259.1894   -7112.2505   -95.831587 
   23800    300.27151   -278.90302    55919.624   -9441.3356    2270.7478   -7170.5878    20.239019 
   23900    293.16744   -570.90526     55885.79   -9469.1646    2217.0246     -7252.14   -120.78098 
   24000     291.1971   -282.85787    55582.326   -9437.2006    2202.1242   -7235.0764     91.80624 
   24100    302.59476   -396.72492     55324.01   -9477.1809    2288.3169   -7188.8639     27.56718 
   24200    295.36618     377.5968    55154.713   -9422.4107    2233.6521   -7188.7586   -317.87866 
   24300     292.6237    62.806969    55119.657    -9461.916    2212.9126   -7249.0034    155.72802 
   24400    294.28416   -564.13928    55196.776   -9526.8874    2225.4695   -7301.4179    14.738428 
   24500    291.74874   -868.14326    55131.017   -9500.3791    2206.2959   -7294.0832    90.901307 
   24600    300.58639   -170.77295     54879.69   -9540.1353     2273.129   -7267.0063     113.2981 
   24700    303.15202    34.384263    54690.096    -9574.169    2292.5311   -7281.6378    379.40665 
   24800    298.17884    -405.8854    54645.133    -9535.625    2254.9223   -7280.7026   -84.425967 
   24900    296.48828    404.96284    54692.883   -9492.2614    2242.1378   -7250.1237      160.691 
   25000    291.30449   -91.798104    54806.943   -9420.9311    2202.9363   -7217.9947    32.228815 
   25100    298.37153   -200.93159    54886.714   -9457.4363    2256.3795   -7201.0567   -15.896353 
   25200    294.65628    173.43442    54909.318   -9430.6617    2228.2837    -7202.378    254.92734 
   25300    300.57664   -309.03283    55007.536   -9464.9109    2273.0553   -7191.8557    43.111523 
   25400    298.43036   -260.50961    55029.364   -9409.7552    2256.8244   -7152.9308   -4.7774549 
   25500    300.80326    351.52198    55011.582   -9391.5956     2274.769   -7116.8266     406.6332 
   25600    292.31701   -600.67331    55180.751   -9416.8925    2210.5934   -7206.2991   -150.13034 
   25700    292.77537   -763.20004    55263.585   -9447.8029    2214.0596   -7233.7433    154.41221 
   25800    298.22077    21.846436    55303.646   -9493.0977    2255.2394   -7237.8583   -57.497423 
   25900    291.06772   -224.24995    55218.399   -9457.9621    2201.1458   -7256.8163    -120.8442 
   26000    304.16033   -136.59076    54952.996   -9544.7578    2300.1563   -7244.6016    106.04989 
   26100    302.05278    513.73607    54630.029   -9505.5486    2284.2183   -7221.3303   -19.483871 
   26200    297.77934    84.948499    54656.371   -9512.4153    2251.9012   -7260.5141   -77.349193 
   26300    294.07377    373.28617    54676.316   -9536.4026    2223.8785   -7312.5241    29.190082 
   26400    297.03739   -35.540389    54908.906   -9569.8646    2246.2903   -7323.5743   -94.697279 
   26500    295.75093    37.208896    55243.286   -9467.9239    2236.5617   -7231.3622    58.882597 
   26600    298.37431    257.32235    55511.586    -9432.422    2256.4005   -7176.0215   -44.947238 
   26700     294.0947    -181.5206    55684.925   -9413.5037    2224.0368   -7189.4669    178.47112 
   26800    298.54229   -83.248129    55518.698   -9447.6962    2257.6709   -7190.0253    -130.3437 
   26900    297.57117    202.77538    55322.308   -9436.4393     2250.327   -7186.1123   -207.14391 
   27000    295.61064   -265.08981    55244.159    -9495.387    2235.5008   -7259.8862    107.76138 
   27100    291.83056   -77.280681     54945.96   -9538.9761    2206.9147   -7332.0614    252.60956 
   27200    293.16863   -426.07002    54823.359   -9562.8699    2217.0336   -7345.8363    31.087529 
   27300    296.33917   -699.50262    54848.046   -9588.7757    2241.0102   -7347.7655    4.4033641 
   27400     309.8438    223.09152    54703.666   -9585.7269    2343.1365   -7242.5905   -34.232953 
   27500    306.31745   -250.91941    54592.555    -9523.161    2316.4691   -7206.6919   -160.08374 
   27600    297.01635    184.89063     54561.89   -9505.9408    2246.1313   -7259.8095    48.760234 
   27700    295.49977    583.36802    54512.719   -9515.8117    2234.6624   -7281.1493    136.17566 
   27800     301.0071    205.77248    54581.531   -9589.6433    2276.3106   -7313.3328    303.06985 
   27900    297.58572   -301.93743    54810.171   -9624.7804     2250.437   -7374.3434    60.064338 
   28000    297.61737   -189.94192    54991.734   -9677.3167    2250.6763   -7426.6404    126.19285 
   28100    288.57666   -210.17012    55031.301   -9601.1702    2182.3076   -7418.8626   -341.22146 
   28200    301.30939    387.88318    54919.253   -9595.4276    2278.5965   -7316.8311    23.300367 
   28300    298.23215   -1.5365948    54939.494   -9566.4029    2255.3255   -7311.0773    36.308664 
   28400    296.37412   -32.584008    54998.465   -9579.0914    2241.2745   -7337.8169    -99.24524 
   28500    297.91083    -139.4501    54973.894   -9565.3598    2252.8955   -7312.4642   -83.706675 
   28600    295.20155    68.457998    54946.649   -9523.9621    2232.4071    -7291.555    35.555201 
   28700    302.79763    184.45862    54945.194   -9536.3939    2289.8511   -7246.5428    54.591992 
   28800    307.42679   -708.80579    55083.826   -9602.4694    2324.8582   -7277.6112    103.10129 
   28900    301.06704   -558.46187    55268.493   -9627.6529    2276.7639   -7350.8891    -74.52777 
   29000    295.40311   -620.30315    55200.867   -9574.6623    2233.9314   -7340.7309    121.63789 
   29100    291.23635   -342.80412    55154.715    -9517.274     2202.421    -7314.853    180.72422 
   29200    297.56834   -99.080693    55210.981   -9475.3074    2250.3055   -7225.0018   -14.396519 
   29300    310.15151   -298.47467    55257.374   -9551.7304    2345.4635   -7206.2669    21.594785 
   29400    301.30394   -131.13941    55331.468   -9508.4948    2278.5553   -7229.9395    18.640778 
   29500     298.6234   -306.48771    55431.066   -9501.3988    2258.2842   -7243.1146    72.203214 
   29600    297.04774   -102.45931    55384.563   -9487.7732    2246.3686   -7241.4046    172.20592 
   29700     304.2642    483.04953    55485.756   -9534.3777    2300.9418   -7233.4359   -37.565901 
   29800    294.53994   -440.24539    55734.669   -9523.2955    2227.4038   -7295.8916    101.32213 
   29900    295.51022   -367.72881    55888.625   -9557.4672    2234.7414   -7322.7258     152.4468 
   30000    297.90826   -338.86857    55838.275   -9563.1927    2252.8762   -7310.3165    166.02101 
   30100    297.26415   -843.74947    55624.011   -9496.7457    2248.0051   -7248.7405   -57.075163 
   30200     303.3082   -516.90076     55345.45   -9493.5267    2293.7122   -7199.8145    83.782387 
   30300    300.78605   -88.705974    55109.311   -9551.0569    2274.6389    -7276.418    39.843542 
   30400    290.06046   -655.54844    55022.541   -9538.2368    2193.5286   -7344.7083    79.935035 
   30500     299.3295   -440.93695    54812.199   -9572.9941     2263.624   -7309.3701    316.89355 
   30600    301.27055   -562.11886    54754.679   -9572.1367    2278.3028   -7293.8338    147.87589 
   30700    295.49617   -637.34424    54715.072   -9565.0749    2234.6352   -7330.4397    47.395739 
   30800     292.7227    234.93268    54526.866   -9620.4918    2213.6613   -7406.8305    193.74507 
   30900     298.4249   -85.272442    54403.767   -9694.2303    2256.7831   -7437.4472   -14.570834 
   31000    299.09357   -91.786399    54120.416   -9661.3759    2261.8398   -7399.5361    101.14999 
   31100     307.4031   -53.112508    54113.824   -9645.8288    2324.6791   -7321.1497    -289.2012 
   31200     305.2087    323.43527    54111.899   -9619.1477    2308.0844   -7311.0633   -2.1884639 
   31300    301.60411    377.30608     54224.75   -9605.5105    2280.8253   -7324.6852   -45.877235 
   31400    298.98069    -67.82219    54432.031   -9660.3974    2260.9862   -7399.4112    -222.3527 
   31500    291.17787    110.67008    54645.121   -9625.6669    2201.9788   -7423.6881   -11.671212 
   31600     292.0342    823.64167      54674.6   -9591.0104    2208.4546   -7382.5558    19.309172 
   31700    300.25071    517.34894    54727.606   -9589.0183    2270.5905   -7318.4279    221.11886 
   31800    296.46841    348.99194    54828.629   -9589.3239    2241.9875   -7347.3364    9.8173503 
   31900    293.48065    233.25398    54815.726   -9578.5256    2219.3932   -7359.1324    13.447472 
   32000    305.39661   -429.83853    54825.246   -9630.5818    2309.5054   -7321.0763   -29.230331 
   32100    296.38508    50.693135    54686.209   -9539.3673    2241.3573     -7298.01   -161.72247 
   32200    303.81348   -50.674995    54610.303   -9536.4097    2297.5333   -7238.8764   -72.080038 
   32300    304.43648   -241.27521    54819.729   -9582.6604    2302.2446   -7280.4158    67.340495 
   32400    294.51981    -158.9992    55033.944   -9586.8347    2227.2516   -7359.5831    129.33778 
   32500    297.65297   -109.03374    54908.555   -9602.3003    2250.9456   -7351.3547    235.19446 
   32600    299.75192     116.1823    54645.501   -9578.0347    2266.8185   -7311.2162   -50.018067 
   32700    295.94771   -19.741992    54514.245   -9526.4207    2238.0499   -7288.3708    138.69361 
   32800     296.6181   -365.53237    54593.966   -9488.7322    2243.1196   -7245.6127   -11.571131 
   32900    303.17039    74.412135    54658.861   -9551.0599      2292.67   -7258.3899   -45.763357 
   33000     291.8944    68.533057     54713.01   -9555.7928    2207.3974   -7348.3954   -209.45303 
   33100    296.20807     276.2481    54631.039    -9622.673    2240.0187   -7382.6543   -15.511119 
   33200    291.11304    634.56547    54661.505   -9599.3625    2201.4885    -7397.874    70.322255 
   33300    297.72091    309.29869    55007.374    -9657.855    2251.4593   -7406.3957    213.88309 
   33400    299.55928   -113.46115    55372.879   -9579.3819    2265.3617   -7314.0202    54.739673 
   33500    300.59999   -711.08634    55527.627   -9519.3006    2273.2318   -7246.0688   -29.149223 
   33600    307.12783   -315.16964    55419.042   -9587.2191    2322.5974   -7264.6217   -102.38506 
   33700    295.72518   -254.30255    55066.845   -9567.5391     2236.367    -7331.172     245.9596 
   33800     298.5612   -549.23949    54667.952   -9610.0347    2257.8139   -7352.2209    88.199248 
   33900    298.77991   -124.25257    54345.138   -9568.5584    2259.4678   -7309.0906   -6.1870705 
   34000    301.00917   -324.72136    54241.862    -9547.695    2276.3262   -7271.3688     350.5138 
   34100    305.59047   -297.19551    54515.612   -9607.8537    2310.9714   -7296.8823   -9.2852386 
   34200    299.20914   -449.59778    54816.274   -9655.1662    2262.7138   -7392.4524   -30.693725 
   34300    298.89455   -391.12193     54932.32   -9650.5357    2260.3348   -7390.2009   -396.82569 
   34400    300.28716    63.333625    54851.882   -9591.4067    2270.8661   -7320.5406    50.648478 
   34500    303.37109    -241.8458    54741.159   -9565.7745    2294.1878   -7271.5867    166.39914 
   34600    306.32483    144.29525    54633.167   -9525.7241    2316.5249   -7209.1992    99.234737 
   34700    305.45203   -272.06177    54506.186   -9561.1273    2309.9245   -7251.2028    78.494126 
   34800    296.90652   -51.744033    54304.581   -9596.2406    2245.3006     -7350.94   -115.16619 
   34900    298.22439   -202.20727    54229.453   -9638.4976    2255.2668   -7383.2307     323.8377 
   35000    296.49742   -241.90167    54288.301    -9634.394    2242.2069   -7392.1871    13.322244 
   35100    292.88861   -506.27933    54241.134   -9569.1728     2214.916   -7354.2569    149.01691 
   35200    302.37035   -91.682208    54212.019   -9580.0635    2286.6199   -7293.4437   -143.74158 
   35300    301.71759   -397.13805    54244.327   -9524.6881    2281.6835   -7243.0046   -92.949215 
   35400    301.96645   -45.865206    54161.637   -9524.3986    2283.5654   -7240.8332   -121.21236 
   35500    300.94045    314.56374    53894.809   -9569.2799    2275.8065   -7293.4733   -104.77801 
   35600    301.85518   -262.99918    53656.224   -9659.6195     2282.724   -7376.8955    33.168127 
   35700    291.70395    206.26557    53604.655   -9635.7208    2205.9572   -7429.7636   -2.2729851 
   35800    298.02083    301.15048    53693.132   -9675.3802    2253.7274   -7421.6528   -152.51758 
   35900    297.04915    372.53448        53932   -9589.6389    2246.3793   -7343.2597    286.10186 
   36000    301.54255    423.56048    54106.537   -9564.8172    2280.3598   -7284.4574   -114.58928 
   36100    301.09561    967.17267    54284.599   -9595.4179    2276.9799    -7318.438    155.51145 
   36200    298.58058    -162.7509    54576.954   -9574.4321    2257.9604   -7316.4717   -2.1932108 
   36300    298.76248    11.891809    54664.939   -9534.9565     2259.336   -7275.6205    139.79153 
   36400    300.59472    278.22441    54608.706   -9536.3328     2273.192   -7263.1408    156.90868 
   36500    297.42576   -514.35195    54573.303   -9539.3007    2249.2273   -7290.0734   -146.95911 
   36600    296.15568   -352.66611    54421.038    -9597.903    2239.6226   -7358.2804    252.09237 
   36700    297.43401   -184.26769    54324.061   -9630.6755    2249.2897   -7381.3858   -191.26063 
   36800    297.48561   -41.878104    54379.843   -9591.5161    2249.6799   -7341.8362    119.07055 
   36900    305.67098   -649.04416    54486.342    -9582.329    2311.5802   -7270.7488    278.82611 
   37000    306.05169   -551.23506    54539.267   -9600.3573    2314.4594    -7285.898    -54.00659 
   37100    292.36936   -173.59599    54576.828   -9602.8696    2210.9892   -7391.8804    131.23077 
   37200     296.8494   -549.35888    54619.855   -9626.6976    2244.8687   -7381.8289    173.61711 
   37300    300.22207    361.23746    54600.766   -9605.5426    2270.3739   -7335.1687   -46.247303 
   37400    303.13575    15.232511    54569.799   -9560.6746     2292.408   -7268.2665   -130.82708 
   37500    302.01893   -214.31109    54563.831   -9546.4973    2283.9623    -7262.535    51.583756 
   37600    290.81278    272.05203    54335.715   -9578.7976    2199.2179   -7379.5797   -45.250772 
   37700     293.6211    316.10203    54015.379   -9625.1132    2220.4553   -7404.6579    10.580112 
   37800    299.40655    14.810606    53980.988   -9661.0543    2264.2067   -7396.8476    217.41713 
   37900    299.16604    509.31078    54094.377   -9634.9356    2262.3878   -7372.5478   -71.048078 
   38000    299.71639    293.30425     54261.26   -9588.8067    2266.5498   -7322.2569    129.42609 
   38100    293.97527   -199.84234    54295.371   -9533.0558    2223.1336   -7309.9222    213.12127 
   38200    305.08723    3.9308384    54239.829   -9530.3909    2307.1657   -7223.2251    190.55032 
   38300    302.67245   -295.52255    54232.079   -9507.3735    2288.9044   -7218.4691   -46.430336 
   38400    297.15483   -82.690021    54225.184   -9555.7638    2247.1785   -7308.5854    174.93276 
   38500     298.2872   -706.56279    54438.011   -9617.7895    2255.7418   -7362.0477   -231.57186 
   38600    295.36697   -265.23715    54520.242   -9596.4511    2233.6581    -7362.793    65.521189 
   38700    296.51968   -388.52342     54540.46    -9559.315    2242.3753   -7316.9397    55.853941 
   38800     304.0884    -468.7446    54546.743   -9577.3896    2299.6123   -7277.7772    51.414942 
   38900    307.69209   -307.18616    54458.817   -9583.6566    2326.8645    -7256.792    51.150019 
   39000    300.06558   -319.03826    54392.027    -9543.624    2269.1905   -7274.4335   -125.15767 
   39100    293.13668    252.26975    54241.435   -9545.5711    2216.7919   -7328.7792    356.51084 
   39200    296.01901    45.921372    54307.951   -9628.4685     2238.589   -7389.8794    154.71753 
   39300    288.94625   -319.58856     54737.59   -9562.2036    2185.1026   -7377.1011    55.761576 
   39400    296.12191   -90.608407    54952.631   -9534.9103    2239.3672   -7295.5432    281.75842 
   39500    300.32248   -293.11608    55131.059   -9570.4692    2271.1332    -7299.336   -11.686367 
   39600    301.49474   -375.81531    55207.196   -9532.6534    2279.9982   -7252.6552    242.39542 
   39700    298.43405    -332.3717    55261.431   -9469.8468    2256.8524   -7212.9945   -232.36061 
   39800    294.77417   -25.535282    55239.158   -9461.1946    2229.1751   -7232.0194    115.37251 
   39900    301.98902   -462.43039     55008.99   -9614.5789    2283.7361   -7330.8428  0.034061537 
   40000    297.37979    -290.8774    54546.284   -9618.8522    2248.8797   -7369.9725    50.776767 
   40100    296.72973   -388.68426    54148.801   -9620.4073    2243.9637   -7376.4435    43.474028 
   40200    294.41086    223.01077    53934.754   -9631.7771    2226.4277   -7405.3494    46.411686 
   40300    287.33622    414.29268    53823.753   -9670.3353    2172.9271   -7497.4082    7.0753142 
   40400    293.01585    423.13206    53790.913    -9700.888    2215.8782   -7485.0098   -44.014012 
   40500     290.3689     747.7803    53896.844   -9618.5382    2195.8611   -7422.6771     -112.972 
   40600    302.98506     85.15545    54014.836    -9683.598    2291.2685   -7392.3295   -43.871991 
   40700    299.06866    331.96758    54005.852   -9632.1588    2261.6514   -7370.5073    85.836031 
   40800     315.1168    415.59985    53965.497   -9714.8575    2383.0126   -7331.8449    333.22991 
   40900    295.14138   -433.64553    54176.586    -9603.739    2231.9522   -7371.7869   -60.816842 
   41000    289.32578   -602.10073    54291.232   -9630.6616    2187.9727   -7442.6888    223.09474 
   41100    302.26191    769.16487    54304.607   -9691.1248    2285.7998    -7405.325   -106.57052 
   41200    292.73079   -262.40167    54444.404   -9573.0083    2213.7225   -7359.2858    465.11547 
   41300    300.54841   -317.08976    54620.426   -9626.5125    2272.8418   -7353.6707    32.422954 
   41400    294.74454   -763.33027     54847.04   -9594.8676    2228.9511   -7365.9165    64.234232 
   41500    297.12323   -677.90473    54949.829   -9613.4733    2246.9395   -7366.5338     333.7792 
   41600    313.00271   -824.79277    54984.662    -9668.095    2367.0251   -7301.0698    93.724506 
   41700    305.57998   -174.47183    55021.734   -9559.9608    2310.8921   -7249.0687    315.85913 
   41800    305.12636   -384.14016     54950.74   -9613.3584    2307.4617   -7305.8967     48.93129 
   41900    293.14092   -285.39526    54772.531   -9555.7836     2216.824   -7338.9596    191.22959 
   42000    300.62731    211.08679     54562.36   -9628.3011    2273.4384   -7354.8627   0.11372843 
   42100    296.06811    335.50372    54334.481   -9619.5694    2238.9603   -7380.6091    26.010843 
   42200    297.27816    74.078316    54032.466   -9631.3699    2248.1111   -7383.2588   -73.908954 
   42300    297.56418    943.65848    53709.306   -9672.8976    2250.2741   -7422.6235   -70.172669 
   42400    294.35477    541.11741    53592.167   -9706.3088    2226.0035   -7480.3053     168.5655 
   42500    293.96817    56.133184    53704.694   -9661.9401    2223.0799   -7438.8602   -25.168646 
   42600    302.00155    599.65207    53905.699   -9667.0527    2283.8309   -7383.2218   -5.9971915 
   42700    298.77264   -193.04621    54227.268   -9630.1346    2259.4128   -7370.7218   -253.19766 
   42800    296.39543   -136.75165      54421.1    -9596.927    2241.4356   -7355.4914   -151.28885 
   42900    299.66478   -105.59199    54423.637   -9532.5149    2266.1595   -7266.3554    36.918668 
   43000    311.19447     438.8524    54374.752      -9591.8    2353.3506   -7238.4494   -455.17045 
   43100     299.2908   -59.705449    54316.869   -9588.1799    2263.3314   -7324.8486    -149.2041 
   43200     301.0674    448.12297    54284.078   -9641.4581    2276.7665   -7364.6915    55.200116 
   43300    300.06477    209.76489    54469.447    -9656.298    2269.1843   -7387.1137    47.872185 
   43400    296.47415    172.48314    54584.846   -9629.4394    2242.0309   -7387.4084   -156.77563 
   43500    302.50122   -124.71657    54667.582   -9600.1444    2287.6095   -7312.5349     34.85853 
   43600     300.8717    52.572562    54789.907   -9518.3462    2275.2866   -7243.0596    397.60074 
   43700     302.7883    140.19845    54995.338   -9560.6844    2289.7805   -7270.9039    290.69041 
   43800    291.91083   -400.38878    55244.789   -9560.8229    2207.5217   -7353.3012    152.84176 
   43900     296.1829    35.168981    55174.909   -9652.8353    2239.8284   -7413.0069    161.00382 
   44000     293.6586   -248.18885    54905.166    -9704.678    2220.7389   -7483.9391    23.924047 
   44100    290.12102    371.28523     54554.58   -9710.9226    2193.9866    -7516.936    165.62717 
   44200     293.7222    499.46224    54316.453   -9648.2481    2221.2198   -7427.0283   -156.61554 
   44300    293.81102    490.02612      54235.1   -9625.5326    2221.8915   -7403.6411    129.13419 
   44400    299.04238   -459.09231    54274.627   -9624.7026    2261.4527   -7363.2498    108.84502 
   44500    301.35986   -242.33739    54188.077   -9636.8528    2278.9782   -7357.8746    110.56621 
   44600     298.1806    -22.68405    54124.202   -9622.5829    2254.9357   -7367.6473   -21.153168 
   44700    299.43892    -739.2878    54026.616   -9665.9457    2264.4515   -7401.4942    188.43215 
   44800     298.0175    145.36006    53984.345   -9652.3441    2253.7022   -7398.6418    265.40566 
   44900    294.73036   -356.60187    54116.314   -9633.6903    2228.8439   -7404.8464   -83.936995 
   45000    303.59374    -168.7871    54315.355   -9647.5633    2295.8715   -7351.6918    140.91933 
   45100    305.65427   -740.80004    54485.356    -9613.147    2311.4539   -7301.6931   -114.65833 
   45200    303.18228   -518.58667    54587.831   -9571.6747      2292.76   -7278.9147    6.9531668 
   45300    301.52531    89.424588    54531.082   -9540.0551    2280.2294   -7259.8257    2.6804503 
   45400    296.53799    103.13736    54603.278   -9532.7513    2242.5138   -7290.2376   -251.93866 
   45500    292.07083   -730.04939    54581.938   -9567.3646    2208.7316    -7358.633    123.92023 
   45600    294.77236   -469.19505    54468.391   -9606.9728    2229.1615   -7377.8114     291.5303 
   45700    300.65619    446.09852     54239.95   -9622.0951    2273.6568   -7348.4383    35.653891 
   45800    305.56699   -104.69039    54177.361   -9701.1652    2310.7939   -7390.3713    146.30725 
   45900    298.83766   -686.11077    54408.676   -9731.5404    2259.9046   -7471.6358    94.318699 
   46000    286.86813   -677.76945    54544.046   -9641.7484    2169.3872   -7472.3612    218.28241 
   46100    290.90077   -240.61188    54449.807   -9603.2081    2199.8833   -7403.3248    1.5518393 
   46200    300.12993   -70.606483    54209.416   -9616.4885    2269.6771   -7346.8115    202.08627 
   46300    303.56909    221.62926    53922.313   -9649.1903    2295.6851   -7353.5052    51.809488 
   46400    300.05038   -22.508869     54028.49    -9693.685    2269.0755   -7424.6095    205.13462 
   46500    297.12576   -117.66448     54380.19   -9680.3386    2246.9586     -7433.38   -15.059371 
   46600    297.46618   -441.18151    54674.431   -9656.8936     2249.533   -7407.3605     63.53139 
   46700    296.98935    187.24672    54769.741    -9643.321     2245.927    -7397.394    43.396262 
   46800    292.89379    216.39865    54756.878   -9608.3062    2214.9551   -7393.3511    65.863528 
   46900    305.24212    260.21286    54671.727   -9654.2608    2308.3371   -7345.9237   0.94742494 
   47000    298.19354    293.73703    54644.091    -9586.895    2255.0335   -7331.8615   -20.598084 
   47100    296.07353    29.761426    54712.017    -9612.271    2239.0013   -7373.2697   -34.050112 
   47200    290.14698    137.87219    54646.087   -9621.4408    2194.1829   -7427.2579      215.155 
   47300    297.51526   -196.05348    54487.137   -9660.8904    2249.9042   -7410.9862    71.222552 
   47400    300.88118   -398.58645    54467.072   -9636.7728    2275.3583   -7361.4145    71.078089 
   47500    306.49315   -248.07457    54213.374   -9574.1381    2317.7977   -7256.3404   -13.892428 
   47600     297.2291    63.070052    53881.145   -9562.7064    2247.7401   -7314.9663   -114.73747 
   47700    300.90925   -220.55381    53559.774    -9644.022    2275.5706   -7368.4515     200.9379 
   47800    296.39223    453.64228    53348.287   -9664.5905    2241.4115    -7423.179   -223.38495 
   47900    294.82354     1.021511    53268.911   -9682.4666    2229.5485   -7452.9181     362.2853 
   48000    299.20361   -331.00497    53277.373   -9720.5075     2262.672   -7457.8355    329.99767 
   48100    300.66039    131.79767    53437.683   -9702.9326    2273.6886    -7429.244    192.82344 
   48200    298.56254     -16.5398    53764.723   -9647.2867     2257.824   -7389.4627   -119.06008 
   48300    301.19461    29.072428    53968.905   -9620.2813    2277.7285   -7342.5528   -113.95068 
   48400    303.33514   -234.55355    54226.307   -9631.3184    2293.9159   -7337.4025   -95.069423 
   48500    301.11349   -633.88228    54397.439   -9626.4651    2277.1151     -7349.35   -105.11094 
   48600    296.83281   -142.51782     54579.93   -9695.0327    2244.7433   -7450.2895   -23.584944 
   48700    291.95864   -509.80024    54745.247    -9664.718    2207.8832   -7456.8348   -217.22987 
   48800    294.24034   -393.76344    54659.481   -9649.2955    2225.1382   -7424.1573   -113.93135 
   48900    303.31455    94.812018    54340.919   -9622.6174    2293.7602   -7328.8573    69.035165 
   49000    298.78059    305.62867    54057.786   -9590.3585     2259.473   -7330.8856    205.42797 
   49100    303.68418   -345.98567    54080.433    -9670.425    2296.5555   -7373.8696   -29.241348 
   49200    294.25053   -414.44218    54027.708   -9657.3534    2225.2152   -7432.1382   -397.32292 
   49300    294.57714   -290.61112    53763.507   -9669.9897    2227.6852   -7442.3046    202.94464 
   49400     302.1361    478.32979    53727.039   -9693.3067    2284.8484   -7408.4582    236.88061 
   49500    308.90409    48.003058    53878.845   -9637.0094    2336.0301   -7300.9794    211.12433 
   49600    303.60399   -612.64512    54072.883   -9572.5526    2295.9491   -7276.6035    184.56536 
   49700    300.12897   -827.68171    54130.065   -9646.1024    2269.6699   -7376.4326   -313.38512 
   49800    296.78497    367.40039    53930.513    -9649.984    2244.3815   -7405.6026    39.813478 
   49900    295.15075   -392.35331     53837.52   -9692.6385     2232.023   -7460.6155   -37.727516 
   50000    294.12204   -122.96083    53652.761   -9720.1429    2224.2436   -7495.8994    163.83626 
   50100    292.18118    353.59584    53571.394   -9713.8789    2209.5662   -7504.3127    44.922523 
   50200     297.2858    735.32969    53631.715   -9682.9789    2248.1689   -7434.8101    42.368729 
   50300     307.6816    384.79652    53914.839   -9686.1057    2326.7852   -7359.3205    61.274833 
   50400    298.80494    69.099114     54376.71   -9668.3701    2259.6571    -7408.713   -186.76687 
   50500    291.75545    -405.3668    54628.302   -9651.6571    2206.3466   -7445.3104    306.61511 
   50600    299.18959   -607.32141    54674.995   -9716.4419     2262.566   -7453.8759   -340.23809 
   50700    304.68622   -173.62534    54549.066    -9704.087    2304.1332   -7399.9538    57.857879 
   50800    303.09255    -630.5301    54599.184   -9647.1785    2292.0814   -7355.0971    125.52875 
   50900    296.98921   -527.73265    54561.123   -9584.4088     2245.926   -7338.4828   -19.639151 
   51000    298.90848   -325.21562    54503.448   -9579.6174    2260.4401   -7319.1772   -42.398679 
   51100    304.73696   -178.18632    54458.307   -9601.3213    2304.5169   -7296.8044    254.46142 
   51200    291.72565   -711.33703    54410.186    -9588.069    2206.1213   -7381.9476    76.499997 
   51300    293.90238   -204.18412    54343.052   -9647.9172    2222.5824   -7425.3348    76.119666 
   51400    285.78308   -415.30061    54168.165   -9547.2328    2161.1817   -7386.0512    211.11269 
   51500    305.54258    429.39376    53865.628   -9620.1909    2310.6092   -7309.5817    127.87171 
   51600    305.16188    376.54622    53998.241   -9625.8037    2307.7303   -7318.0734   -43.443345 
   51700    298.24959   -431.00981    54237.795   -9648.2651    2255.4574   -7392.8078   -54.559458 
   51800    299.15651    665.50882    54058.444   -9652.3588    2262.3158    -7390.043    2.0784462 
   51900     305.4791    270.62718    53909.439   -9710.6867    2310.1292   -7400.5575    84.281776 
   52000     291.1076   -1.8860346    53932.411   -9661.3577    2201.4474   -7459.9103   -72.285385 
   52100    300.89184   -194.29823    53850.049   -9778.7697    2275.4389   -7503.3308    62.617547 
   52200    300.68706    258.64242    53683.265    -9752.432    2273.8903   -7478.5418     -265.005 
   52300    303.30125    235.71427    53554.173   -9677.3249    2293.6596   -7383.6653   -45.118697 
   52400    302.88856   -110.89246    53553.436   -9651.9598    2290.5387   -7361.4211    27.148125 
   52500    300.01566   -366.61354    53718.697   -9679.3964    2268.8129   -7410.5835   -122.91485 
   52600    295.03624   -263.44764    53931.112   -9690.4718     2231.157   -7459.3148   -20.045915 
   52700    287.87291    50.332746     54053.79   -9666.3871    2176.9856   -7489.4015   -70.703558 
   52800    296.66074   -350.91963    54124.404    -9691.249     2243.442    -7447.807    256.42387 
   52900     296.9385    347.88645    54126.274   -9650.6331    2245.5425   -7405.0906   -195.80018 
   53000    302.33634   -159.70279    54111.453    -9658.696    2286.3627   -7372.3333    196.68945 
   53100    306.79209   -47.620815    54116.656   -9669.3284    2320.0584     -7349.27     150.5121 
   53200    291.17023   -257.71419    54249.921   -9631.4312     2201.921   -7429.5101    169.29446 
   53300    295.78905   -483.59538    54489.449   -9739.4501      2236.85   -7502.6001    112.19125 
   53400    299.63611    37.530325    54530.543   -9715.4166    2265.9427    -7449.474   -33.871688 
   53500    295.08378    340.05752    54458.315   -9629.9385    2231.5165    -7398.422    54.282733 
   53600    297.51185    65.855223    54525.542   -9629.3204    2249.8783   -7379.4421    57.178486 
   53700    297.03172    89.949202    54639.941   -9615.8732    2246.2475   -7369.6257    204.18222 
   53800    300.72138   -524.08104    54781.136   -9629.0176    2274.1499   -7354.8677    373.83463 
   53900    300.28049   -317.69341    54897.061    -9568.348    2270.8157   -7297.5324    1.7170499 
   54000    303.38269    58.489837    54840.275   -9536.7324    2294.2755   -7242.4569    25.074878 
   54100    304.69996   -442.51812    54955.949   -9571.5242    2304.2371   -7267.2871    4.3691274 
   54200    302.72134   -71.235429    54992.689   -9615.9597    2289.2742   -7326.6855   -66.789993 
   54300     297.5551   -114.95688    54789.173   -9659.2345    2250.2054   -7409.0291     49.69299 
   54400    295.93502    500.90267     54445.72   -9653.5612    2237.9538   -7415.6073    217.09668 
   54500    296.89455    408.02063    54422.385    -9618.603    2245.2102   -7373.3928   -152.57423 
   54600    298.21282   -324.93683    54425.825   -9600.3692    2255.1793   -7345.1899    138.53647 
   54700    298.24748    125.65477    54376.865   -9545.7105    2255.4414   -7290.2691     -84.8795 
   54800    298.53424    1000.1902    54227.973   -9495.6596      2257.61   -7238.0496   -19.503008 
   54900    303.80983    21.047328    54366.894   -9597.4456    2297.5057   -7299.9399   -164.25422 
   55000    299.56032    6.0429064    54273.013   -9642.5403    2265.3695   -7377.1707   -295.82884 
   55100    291.77797   -96.304724    54051.865   -9620.7204    2206.5169   -7414.2035   -45.882701 
   55200    301.19797    276.69703    53933.362    -9733.011     2277.754    -7455.257   -29.971882 
   55300    295.60433   -496.76108    54000.261   -9739.8039    2235.4531   -7504.3508    334.91682 
   55400    294.09958   -233.21981    53997.539   -9767.0629    2224.0737   -7542.9892    168.04988 
   55500    291.24787   -244.86695    53769.581   -9770.7259    2202.5082   -7568.2177    207.31218 
   55600    304.06506    86.824143    53567.203   -9766.5929    2299.4358   -7467.1571    92.135817 
   55700    302.18667   -33.954435    53505.246   -9704.6243    2285.2308   -7419.3935    300.98695 
   55800    303.00309   -337.99888    53619.366   -9713.2442    2291.4049   -7421.8394    121.99919 
   55900    296.13415   -479.28281    53955.545   -9673.1573    2239.4598   -7433.6976     234.2961 
   56000    291.50056   -457.40953    54273.726   -9705.4443    2204.4191   -7501.0252    74.804766 
   56100    293.27683    112.59496    54324.662   -9708.6571    2217.8518   -7490.8052     6.710576 
   56200    300.47882   -133.34908    54452.215   -9647.1329    2272.3155   -7374.8174    206.84433 
   56300    298.26096     143.6739    54748.835   -9610.7731    2255.5434   -7355.2297   -237.14277 
   56400    303.76694     41.75066    54711.846   -9622.6367    2297.1813   -7325.4553    150.16522 
   56500    304.15035   -90.451517    54400.718   -9628.8581    2300.0808   -7328.7773    3.1323301 
   56600    303.44415   -131.71506    54045.765   -9626.5504    2294.7403   -7331.8101    208.85253 
   56700    300.24005    287.17864    54095.845   -9676.6328    2270.5098    -7406.123    90.769951 
   56800    294.35936   -310.29951    54230.186   -9677.2573    2226.0382    -7451.219   -26.210786 
   56900    296.12708   -294.09698    54132.141   -9681.1554    2239.4063   -7441.7491   -93.183875 
   57000    298.69685   -2.7555373    54010.172    -9598.335    2258.8397   -7339.4953     2.678732 
   57100    301.94562    277.45818    54053.404   -9601.1841     2283.408   -7317.7761    -240.6605 
   57200    295.33518    269.99126    54264.939   -9600.0038    2233.4177   -7366.5861   -19.867914 
   57300    296.51703   -158.43621    54532.234   -9611.5592    2242.3552    -7369.204   -48.215214 
   57400    299.93246    153.98561    54671.261   -9607.8897    2268.1838   -7339.7059    33.212585 
   57500    305.43815   -4.4317928    54628.243   -9624.1534    2309.8196   -7314.3338   -26.741258 
   57600    300.83603     396.5479    54509.158   -9602.7346    2275.0168   -7327.7177   -110.20618 
   57700    299.91092    162.10235    54505.724   -9671.2185    2268.0209   -7403.1976   -116.93536 
   57800     295.8448   -189.93739    54526.779   -9698.6938    2237.2716   -7461.4222    302.58271 
   57900    303.24353   -28.134769    54609.449   -9747.3367    2293.2231   -7454.1136    22.042244 
   58000    296.93861    280.70947     54814.93   -9661.1545    2245.5433   -7415.6111     296.8363 
   58100    306.28641   -306.34946    55086.989   -9654.2068    2316.2344   -7337.9724   -189.72594 
   58200    295.73614    -314.1052    55251.768   -9543.7323    2236.4499   -7307.2824    84.488953 
   58300    296.41451   -435.28776    55322.807   -9591.7327    2241.5799   -7350.1528   -93.935995 
   58400     299.2759   -6.2812333    55245.441   -9668.1443    2263.2187   -7404.9257   -85.432248 
   58500     286.9258    90.341799    54946.756   -9659.7366    2169.8233   -7489.9133    4.3458807 
   58600    288.70421    48.421471    54500.329   -9677.6776    2183.2722   -7494.4054    -165.0612 
   58700    295.89326    293.82597    54210.535   -9650.8145     2237.638   -7413.1765    282.79753 
   58800    302.14384    262.60394    54124.773   -9645.7039    2284.9069    -7360.797    81.284486 
   58900    303.42317    -440.3109     54084.04    -9658.373    2294.5816   -7363.7914    178.79944 
   59000    294.26639   -528.60777    53977.281   -9659.9026    2225.3352   -7434.5674    223.84659 
   59100    299.65828   -214.81523    53844.153   -9750.7427    2266.1104   -7484.6324     186.1338 
   59200    294.07998    362.38129    53973.032   -9746.1045    2223.9255    -7522.179   -48.095946 
   59300    291.57435    130.00234    54122.393   -9683.0048    2204.9771   -7478.0277    51.348544 
   59400     298.8608    145.73835    54333.007   -9689.7965    2260.0795   -7429.7169    216.40353 
   59500    304.51986    369.48766    54541.029   -9681.7133    2302.8752   -7378.8381   -116.98123 
   59600    302.75198    338.45433    54642.802   -9677.7245    2289.5059   -7388.2186    195.51027 
   59700    304.36695    642.88536    54704.545   -9677.8977    2301.7188   -7376.1789    157.00784 
   59800    297.95378   -62.156932    55033.874   -9669.6819    2253.2204   -7416.4615     228.4792 
   59900    297.31833   -1187.4342    55278.568   -9720.3099    2248.4149   -7471.8951    33.721868 
   60000    296.62719   -750.67842    55148.367   -9719.7277    2243.1882   -7476.5395      302.194 
   60100    298.32272   -435.80188    55021.305   -9658.0572    2256.0104   -7402.0468    159.81043 
   60200    297.89651   -1111.9624    54979.006   -9605.2221    2252.7873   -7352.4348   -90.204058 
   60300    297.88978   -360.02597    54943.602   -9619.9916    2252.7364   -7367.2552      176.344 
   60400    298.36254    -367.3708    54900.675   -9648.9298    2256.3116   -7392.6183     87.37862 
   60500    300.49951   -411.86716    54761.516   -9664.7268     2272.472   -7392.2548    15.470958 
   60600    298.30068   -25.697903    54382.225   -9654.7292    2255.8437   -7398.8855   -145.07672 
   60700    301.12063   -175.11237    54084.411   -9679.8493    2277.1691   -7402.6802   -33.759752 
   60800    298.60085    33.903381    53911.478   -9692.9836    2258.1137   -7434.8698   -42.907323 
   60900    299.17031    657.92932    53979.425   -9753.9649    2262.4201   -7491.5448    441.16536 
   61000    293.71712   -94.328536    54057.305   -9734.7801    2221.1814   -7513.5988   -183.48821 
   61100    294.49402   -373.85049    53934.591   -9704.9432    2227.0566   -7477.8866     197.2976 
   61200    301.04405     280.9509    53652.249   -9724.7888    2276.5899   -7448.1989    183.42186 
   61300      299.048    205.74028    53440.433   -9700.5897    2261.4952   -7439.0945   -95.066288 
   61400    293.09202   -79.104829    53240.347   -9679.5017    2216.4542   -7463.0475    127.46236 
   61500    300.10042   -61.844538    53192.129   -9739.9949    2269.4539    -7470.541    59.324909 
   61600    294.77824   -222.78258    53371.363   -9743.9022     2229.206   -7514.6963    187.24844 
   61700     301.0761   -141.46277    53571.349   -9761.5657    2276.8324   -7484.7333   -89.376791 
   61800    297.89686    -787.5216    53826.188    -9658.255    2252.7899    -7405.465   -63.258512 
   61900    302.01806   -953.34424    54000.768   -9663.4003    2283.9557   -7379.4446   -113.05707 
   62000    300.51019    -1150.162    54310.232   -9652.9785    2272.5528   -7380.4258     356.0176 
   62100    297.37495   -486.92117    54593.481   -9657.3844    2248.8431   -7408.5413    53.135208 
   62200    291.86314    -487.1524    54653.158   -9718.0278    2207.1611   -7510.8667    197.40117 
   62300    285.32407   -1029.1305    54443.884   -9664.5263    2157.7105   -7506.8158   -10.192486 
   62400     300.6499   -104.43732    54259.119   -9710.8168    2273.6093   -7437.2076   -175.58253 
   62500    297.11264    724.15154    54105.486   -9640.4658    2246.8594   -7393.6064    107.82805 
   62600    298.34217    330.41334    54060.289   -9614.5812    2256.1575   -7358.4237    269.12648 
   62700    298.51571    -45.09106    54114.427   -9607.6268    2257.4698    -7350.157   -66.836957 
   62800    312.27854    437.69054     54129.79   -9657.1961    2361.5487   -7295.6474   -62.437747 
   62900    309.31328    906.58582      54229.9   -9659.0709    2339.1245   -7319.9465    93.615071 
   63000     298.1607   -98.215158    54438.345   -9658.3804    2254.7852   -7403.5952    -10.96724 
   63100    295.41655    -66.97644    54612.548   -9689.2133     2234.033   -7455.1802    123.73986 
   63200    297.33402    140.94902    54611.367   -9696.2369    2248.5335   -7447.7034   -135.50731 
   63300     298.0265    300.76092    54385.968   -9645.8622    2253.7703   -7392.0919    37.472713 
   63400    307.44956    11.529384    54297.947   -9674.6557    2325.0305   -7349.6253    221.17813 
   63500     301.0255   -345.43165     54374.29   -9578.8085    2276.4497   -7302.3588   -203.06518 
   63600    299.62521   -184.55723    54335.013   -9621.4918    2265.8603   -7355.6315    213.67767 
   63700    295.83819    192.48722    54222.949   -9679.5406    2237.2216    -7442.319   -70.115888 
   63800    297.39992    2.8489091    54162.964   -9709.2117    2249.0319   -7460.1798   -160.63922 
   63900    298.41479   -667.74504    54240.433   -9708.4222    2256.7067   -7451.7156   -180.90238 
   64000    298.91101   -50.791196    54289.945   -9631.5576    2260.4593   -7371.0983    201.69997 
   64100    302.06937   -581.31594    54666.451   -9603.3837    2284.3437     -7319.04     24.84199 
   64200    297.71868    -314.2028    54794.067   -9573.8533    2251.4425   -7322.4108   -185.00779 
   64300    294.98035   -562.05673    54726.501   -9585.8757    2230.7343   -7355.1413    148.90133 
   64400    290.41186    -93.40483    54401.122   -9612.3734     2196.186   -7416.1874    80.738484 
   64500    293.83487   -152.12272    54129.188   -9687.6395    2222.0719   -7465.5677     185.7263 
   64600    295.55079   -43.076795    53986.899   -9651.7971    2235.0482   -7416.7489    246.84578 
   64700    301.87923    395.11045    54074.732   -9660.1258    2282.9059   -7377.2199    382.61141 
   64800    295.10817     826.2531    54421.855   -9595.3196     2231.701   -7363.6186   -81.664981 
   64900    295.05334    254.12303    54901.289   -9624.2853    2231.2863   -7392.9989   -211.67671 
   65000    299.28946   -183.34972    55172.133   -9653.9059    2263.3212   -7390.5846    68.607357 
   65100    293.08197   -575.49781     55268.88   -9582.5141    2216.3782   -7366.1359   -41.681051 
   65200    300.13661    42.565397    55118.459   -9577.6217    2269.7276   -7307.8941    279.60878 
   65300    300.32481   -19.596902    55068.581   -9556.3093    2271.1508   -7285.1585   -94.729632 
   65400    298.46898   -174.06681    54901.881   -9553.0815    2257.1165    -7295.965   -19.873243 
   65500    299.69104   -160.39453    54587.986    -9634.073    2266.3581   -7367.7149    79.109359 
   65600    299.02822     35.96658    54246.509   -9703.9855    2261.3456   -7442.6399    158.88234 
   65700    292.16787   -618.88845     54094.79   -9668.6905    2209.4655    -7459.225   -29.596249 
   65800    300.25473    -101.1113    53768.028    -9696.772    2270.6209   -7426.1512    80.098753 
   65900     299.3887    8.1182511     53474.42   -9665.3497    2264.0717   -7401.2779    353.37559 
   66000    295.04988   -416.38414    53317.758   -9700.2361    2231.2602   -7468.9759   -75.064691 
   66100    290.22792   -91.468805    53161.604   -9718.0266     2194.795   -7523.2317   -162.98886 
   66200    300.92304   -416.64057     53221.77   -9762.4063    2275.6748   -7486.7315    -26.98134 
   66300    303.59907   -245.29331    53333.105   -9749.7468    2295.9118    -7453.835    21.981253 
   66400     296.6756   -328.13128    53561.338   -9677.3476    2243.5544   -7433.7932     66.66264 
   66500    309.75637   -29.405689    53704.245   -9698.6893    2342.4752   -7356.2141    -48.93982 
   66600    301.22838   -134.17882    54034.842   -9652.4475    2277.9839   -7374.4636   -128.81026 
   66700    293.66358   -864.50458    54501.348   -9674.2954    2220.7765   -7453.5189    137.27225 
   66800    293.11126   -1144.1354    54634.854   -9648.9001    2216.5997   -7432.3004    174.36792 
   66900    303.19384    549.10864     54323.55   -9659.3744    2292.8473   -7366.5271   -198.70993 
   67000     302.5108    455.59058    54126.996   -9660.8773     2287.682   -7373.1953    143.01091 
   67100    292.76044    478.42582    54030.828   -9627.0783    2213.9467   -7413.1316    85.234513 
   67200    294.92176    200.73839    54044.877   -9649.1797    2230.2913   -7418.8884   -140.01006 
   67300    290.47899    71.150076    54053.282    -9646.644    2196.6936   -7449.9504     144.4645 
   67400    293.87203   -183.75487    54108.291   -9722.4067    2222.3529   -7500.0538    418.35548 
   67500    296.30991   -46.136519    54149.277   -9751.5028    2240.7889   -7510.7139   -191.62985 
   67600    294.63713    402.34143    54190.793   -9676.3771    2228.1388   -7448.2383     127.3523 
   67700    302.09907    140.80668    54253.802   -9657.3339    2284.5684   -7372.7655    201.56571 
   67800    302.82751   -22.953417    54301.025   -9668.9162    2290.0771   -7378.8391     187.4949 
   67900    302.36228    372.52371    54442.233   -9662.1066    2286.5588   -7375.5478   -92.621723 
   68000     293.9221   -242.03472    54618.279   -9661.7354    2222.7315   -7439.0039   -160.69314 
   68100    291.96117   -362.71543    54659.431   -9708.3268    2207.9024   -7500.4244    214.49589 
   68200    300.89855   -553.54371     54514.18   -9751.4583    2275.4897   -7475.9686   -249.46917 
   68300      301.768      155.415    54306.734   -9711.0572    2282.0647   -7428.9925     22.58205 
   68400    299.90177    552.95901     54110.06   -9697.9791    2267.9517   -7430.0274    -139.8431 
   68500    296.16957    501.19526    54013.454   -9686.0865    2239.7276   -7446.3589     70.14069 
   68600    296.84762   -166.06702    53806.765   -9773.5668    2244.8552   -7528.7116   -264.14308 
   68700    294.91991    353.94296    53446.668   -9796.2453    2230.2773    -7565.968   -44.292891 
   68800    300.41302    349.41982    53283.419   -9822.4046    2271.8179   -7550.5866   -45.437658 
   68900    308.06507    621.89903    53336.416   -9767.7055    2329.6852   -7438.0204   -214.31602 
   69000    298.57539   -446.91628      53582.1   -9720.8369    2257.9212   -7462.9157     46.71361 
   69100    292.49906   -463.07324    53836.099   -9740.2642    2211.9701   -7528.2941    103.61861 
   69200    294.68469   -358.13766    53955.783   -9769.8187    2228.4985   -7541.3202    219.03037 
   69300    296.13207   -498.88706    53939.273   -9758.3179     2239.444   -7518.8739    258.36257 
   69400    304.29588   -156.73212    54060.055   -9698.4768    2301.1813   -7397.2955    7.5369698 
   69500    306.23328   -481.57438    54232.251   -9715.0827    2315.8326   -7399.2502    47.363943 
   69600    299.12906    368.17107    54338.402    -9713.775    2262.1082   -7451.6668   -119.31352 
   69700    289.02271     37.89036    54368.516    -9689.922    2185.6808   -7504.2412    162.69072 
   69800    296.54572   -74.654633    54410.538   -9739.2643    2242.5722   -7496.6922    36.494327 
   69900    299.66178    222.95435    54452.539   -9723.2498    2266.1368   -7457.1129    143.65565 
   70000    297.66161    622.22972    54558.617   -9699.0802    2251.0109   -7448.0694      31.6847 
   70100    300.13158    294.37361    54809.382   -9677.8816    2269.6896    -7408.192   -270.81524 
   70200    307.43479    136.33307    55085.153   -9692.0931    2324.9188   -7367.1744    189.76516 
   70300    297.22564    143.04343    55317.697   -9665.3295    2247.7139   -7417.6155     42.97602 
   70400    293.52907   -7.7292148    55409.134   -9680.6654    2219.7593   -7460.9061    90.292473 
   70500    301.96761    88.336118    55357.628    -9758.547    2283.5742   -7474.9728   -51.448641 
   70600    295.32498   -327.36096     55318.79   -9650.4497    2233.3406   -7417.1091   -170.01331 
   70700    301.26471   -132.24689    55145.781   -9620.8033    2278.2586   -7342.5447    285.63014 
   70800    298.47844   -951.16344    55099.595   -9641.8591     2257.188    -7384.671    92.256777 
   70900    296.45631   -744.75481    54942.806   -9678.9608     2241.896   -7437.0648   -208.07166 
   71000    296.37496   -668.95212    54757.322   -9711.4023    2241.2808   -7470.1214   -60.747779 
   71100    289.61585   -777.05528    54603.504   -9721.8582    2190.1663    -7531.692    283.26113 
   71200    293.16748   -24.249835    54447.468   -9791.1154    2217.0249   -7574.0905   -125.43014 
   71300    295.94491   -651.15938    54367.333   -9779.7668    2238.0287   -7541.7381   -256.30051 
   71400     296.8614   -107.42771     54243.08   -9686.5777    2244.9595   -7441.6182     199.0369 
   71500    298.35972    11.111037    54088.249   -9690.3577    2256.2902   -7434.0675    23.436971 
   71600    299.68834    114.47693    53938.705   -9705.6631    2266.3377   -7439.3255    80.115624 
   71700    296.53579   -278.60272    54040.188   -9682.4823    2242.4971   -7439.9852    75.433244 
   71800    302.50849    235.46166    54193.313   -9708.7971    2287.6645   -7421.1326   -63.053085 
   71900    300.65845    593.02834    54287.515   -9666.2361    2273.6739   -7392.5622   -22.278164 
   72000     297.9614    449.96921    54301.011   -9648.1843     2253.278   -7394.9063   -130.51636 
   72100    295.39192   -41.885233     54326.76   -9669.2793    2233.8468   -7435.4325   -105.97732 
   72200    294.68316    252.84534    54290.379   -9711.8867    2228.4869   -7483.3998    184.15467 
   72300      295.718    145.72169    54136.045   -9700.9463    2236.3127   -7464.6336   -289.42285 
   72400    302.76132   -183.30619    53846.888   -9695.3894    2289.5765   -7405.8129    185.67423 
   72500     304.5329   -280.46126    53739.857   -9645.0623    2302.9737   -7342.0886     96.33534 
   72600    300.51936   -783.36809    53881.292   -9683.4765    2272.6221   -7410.8544   -73.581591 
   72700    291.92221   -331.76116    54006.907   -9666.8587    2207.6077    -7459.251   -2.9590343 
   72800    293.86641   -355.96622    54165.174   -9690.7122    2222.3104   -7468.4018    19.952759 
   72900    295.19001   -80.336667    54353.069   -9662.8186    2232.3199   -7430.4987    166.55743 
   73000    310.13936   -439.74308    54517.042     -9732.97    2345.3715   -7387.5985   -168.65974 
   73100    306.96933    -220.9974    54582.613   -9680.8079    2321.3988   -7359.4091    384.07754 
   73200    295.86435   -101.16172    54633.089   -9600.8599    2237.4194   -7363.4405    91.350931 
   73300    301.08065   -19.301144     54622.03   -9657.6693    2276.8668   -7380.8025     168.5071 
   73400    298.14451    565.27336    54419.979   -9690.1205    2254.6627   -7435.4578    53.351944 
   73500    295.03733    55.158054    54362.596   -9716.9832    2231.1653   -7485.8179   -10.236889 
   73600     295.8819    296.97026    54314.797   -9741.8908    2237.5521   -7504.3387   -84.853132 
   73700    302.16531    326.00168    54214.232   -9710.0149    2285.0693   -7424.9456   -143.79174 
   73800     300.4268    69.480826    54137.025    -9643.708    2271.9221   -7371.7859    205.92363 
   73900    296.84891   -137.41944    54064.119   -9616.2931     2244.865   -7371.4281   -58.755687 
   74000    300.55993    -457.0529     54101.26    -9639.862    2272.9289   -7366.9331    148.82508 
   74100    286.36188   -283.27253     54194.88   -9607.0136    2165.5588   -7441.4548   -5.1954802 
   74200    298.14643   -533.72105    54206.983   -9751.8832    2254.6772   -7497.2059    101.43945 
   74300    296.30073   -88.470162    54054.037   -9715.1945    2240.7195    -7474.475   -33.271162 
   74400    304.71678   -104.77451    53760.837   -9691.9099    2304.3643   -7387.5456    266.39106 
   74500    304.52517    538.82186     53450.83   -9668.1335    2302.9153   -7365.2182   -225.01234 
   74600    293.38038    176.75984      53335.9   -9641.3056    2218.6348   -7422.6708   -5.7570421 
   74700    298.83228   -42.530819    53563.915   -9694.5739    2259.8638     -7434.71    44.056526 
   74800    294.66681   -419.22788    53869.877    -9667.979    2228.3633   -7439.6157    39.366831 
   74900    299.70823   -75.023287      54000.1   -9689.5439     2266.488   -7423.0559   -114.92451 
   75000    301.04359    88.133546    54094.291   -9644.1523    2276.5865   -7367.5658   -87.835685 
   75100     301.2054    357.61938    54186.723   -9568.6145    2277.8101   -7290.8044      154.935 
   75200    307.28385    146.57723    54451.784   -9692.1313    2323.7773    -7368.354    35.564406 
   75300    297.35214    76.930818    54662.796   -9668.1251    2248.6705   -7419.4546   -307.63021 
   75400    295.51374   -558.24881    54582.736   -9656.2355     2234.768   -7421.4675   -64.021643 
   75500    302.95735    146.39758    54191.072   -9694.7049    2291.0589    -7403.646    149.89808 
   75600    299.28885    110.64256    53885.456   -9709.4531    2263.3166   -7446.1365    83.702709 
   75700    300.14645   -189.28162    53770.712   -9789.3465     2269.802   -7519.5445   -176.29999 
   75800    294.46651   -527.55243    53775.086   -9773.4121    2226.8486   -7546.5635    84.954407 
   75900    291.61337   -356.52832    53774.451   -9706.3789    2205.2722   -7501.1067     15.02945 
   76000    303.08913     430.0058    53780.185   -9756.4756    2292.0555   -7464.4201    272.77163 
   76100    292.22363   -237.89214    53964.616   -9680.1055    2209.8872   -7470.2183    103.88828 
   76200    286.43431   -230.04398    54076.047   -9653.2862    2166.1065   -7487.1797    175.60785 
   76300    302.52429    154.87697    54076.431   -9699.9573     2287.784   -7412.1733    -50.91949 
   76400    298.96008    408.41259    54041.352   -9679.8635    2260.8303   -7419.0332    57.443279 
   76500    291.62901    185.46646    54002.928   -9654.3442    2205.3905   -7448.9537   -21.900129 
   76600    295.11316    5.0920741    54008.569   -9713.9371    2231.7387   -7482.1985     -18.5439 
   76700    301.59457   -159.57981    53899.456   -9721.7422    2280.7532    -7440.989    212.53581 
   76800    303.13447    637.22803    53796.913   -9682.6151    2292.3983   -7390.2167   -27.081815 
   76900      301.098    81.165049     53990.73   -9688.5486    2276.9979   -7411.5507    92.322145 
   77000    293.57463   -523.39467    54312.057   -9718.5572    2220.1039   -7498.4533    78.056443 
   77100    286.51224   -334.85647    54426.384   -9686.0569    2166.6959   -7519.3611    -74.06045 
   77200    295.17164   -104.43877    54302.127   -9669.2259     2232.181   -7437.0449    142.78748 
   77300    302.51802   -3.8881003    54137.329   -9712.0295    2287.7366   -7424.2929    44.011945 
   77400    301.37138   -588.58984    53984.313    -9709.994    2279.0654   -7430.9286   -131.90186 
   77500    292.43119   -248.14183    53907.116   -9659.4677    2211.4568   -7448.0109    440.02042 
   77600     299.5902    333.31474    53842.441   -9706.4215    2265.5955    -7440.826   -63.834927 
   77700    299.26507   -20.255251    54003.943   -9714.7437    2263.1368   -7451.6069    213.99395 
   77800    291.30954   -466.37287    54288.007   -9657.0241    2202.9746   -7454.0496   -27.091476 
   77900    302.90324    206.76638    54472.619   -9690.1839    2290.6498   -7399.5341    11.334728 
   78000    302.52542    125.32386    54614.131   -9640.6916    2287.7926    -7352.899    175.72747 
   78100    298.16076   -181.73344    54764.759   -9657.9926    2254.7856    -7403.207    106.72864 
   78200    288.46704   -105.95085    54920.681   -9643.4432    2181.4787   -7461.9646    -191.9005 
   78300    299.51793    54.769962    54959.951   -9719.1195     2265.049   -7454.0705   -35.538962 
   78400    302.74284    402.57233    54758.828   -9706.0542    2289.4368   -7416.6174   -42.566057 
   78500    296.75257   -37.417654    54534.776   -9659.4516    2244.1365   -7415.3151     31.48865 
   78600    295.45655   -273.14342     54522.24    -9693.988    2234.3355   -7459.6525    418.91951 
   78700    287.57933   -212.39825    54571.067   -9709.3486    2174.7655    -7534.583   -10.725629 
   78800    290.28425   -34.061415    54453.331   -9695.5051     2195.221   -7500.2842    190.74652 
   78900    302.17853   -336.32881    54277.362   -9717.0754    2285.1693   -7431.9061    420.94428 
   79000    299.47456    -259.6207    54274.329    -9689.387     2264.721   -7424.6661   -280.10101 
   79100    297.03023   -234.22093    54391.402   -9653.8093    2246.2362   -7407.5731   -99.634245 
   79200    304.09683    253.19668    54327.839   -9656.5377     2299.676   -7356.8617     217.6799 
   79300    302.75322   -283.34955    54376.478   -9649.5564    2289.5152   -7360.0412   -54.933301 
   79400    296.20428   -320.30643    54328.221   -9698.8948    2239.9901   -7458.9047   -50.377171 
   79500    295.80037    295.94449    54193.408   -9732.1426    2236.9356    -7495.207   -181.25052 
   79600    289.98149    299.77309    54143.087   -9720.9097    2192.9314   -7527.9783    92.004256 
   79700    299.37257     19.58114    54125.453   -9722.2708    2263.9497    -7458.321    145.03077 
   79800    305.31838    29.764426    54252.094     -9701.94    2308.9138   -7393.0262    227.83728 
   79900    303.66482    111.48804     54457.66   -9714.7094    2296.4091   -7418.3003   -83.762725 
   80000    289.59271   -109.80727    54513.766   -9616.9042    2189.9913   -7426.9128    65.550536 
   80100    294.59641     394.9257    54431.042   -9664.2062    2227.8309   -7436.3754   -73.821035 
   80200    299.49877    44.572121    54411.283   -9663.6992    2264.9041   -7398.7952   -32.323654 
   80300    298.96661   -254.81499    54741.817   -9595.8524    2260.8797   -7334.9727   0.37472258 
   80400    307.37138   -234.16677    55172.397   -9627.9744    2324.4392   -7303.5352   -199.76747 
   80500    301.75833   -835.09548    55470.465    -9660.068    2281.9916   -7378.0763    78.787605 
   80600    304.91628   -1023.9712    55571.661   -9732.6562     2305.873   -7426.7832    1.0312867 
   80700    298.59117   -500.70979    55364.855   -9668.9542    2258.0405   -7410.9137    119.30422 
   80800    293.46783    619.57675    54920.862   -9618.1844    2219.2962   -7398.8883   -270.28619 
   80900    298.44126   -390.50313    54682.115    -9679.987    2256.9068   -7423.0802    23.390905 
   81000    289.60191   -271.31068    54614.212   -9713.4562    2190.0609   -7523.3953   -9.0072066 
   81100    294.97052     149.6132    54652.677    -9736.499      2230.66    -7505.839    96.930508 
   81200    293.70017   -93.382506    54694.488   -9661.3607    2221.0532   -7440.3075   -63.869165 
   81300    309.52055    -476.0388    54570.215   -9738.2403    2340.6919   -7397.5484   -317.88703 
   81400    300.40007   -474.73606     54355.71   -9688.7304      2271.72   -7417.0104    153.89917 
   81500    299.23104   -415.41908    54367.711   -9730.7787    2262.8794   -7467.8992    101.95914 
   81600    289.87747    -847.1148    54426.705   -9738.5327    2192.1448    -7546.388    107.33894 
   81700    299.08349   -364.10944    54380.206   -9828.6812    2261.7636   -7566.9176    145.08804 
   81800    292.95055    -41.83889     54286.53   -9752.8869    2215.3843   -7537.5025    126.60896 
   81900    301.39702    42.131194    54289.148    -9767.088    2279.2592   -7487.8288    12.017225 
   82000    296.93972    178.91357    54416.618   -9716.7749    2245.5517   -7471.2232     87.38058 
   82100    293.74984   -574.27935     54478.67    -9666.335    2221.4288   -7444.9062    71.908439 
   82200    296.66782   -323.89122    54524.369   -9744.1266    2243.4955   -7500.6311    109.83061 
   82300    295.05354    43.858757    54457.266   -9806.9639    2231.2879   -7575.6761    76.125509 
   82400     289.5574    276.72392    54240.142   -9773.3856    2189.7243   -7583.6614     253.0554 
   82500    301.75594   -278.61314    53942.469   -9820.5963    2281.9735   -7538.6228    225.96541 
   82600    301.68696    152.44161    53750.319   -9753.5114    2281.4519   -7472.0595    255.61255 
   82700    299.34736     662.3955    53637.419   -9734.0769     2263.759   -7470.3179    89.793874 
   82800    301.97313     710.9864    53817.145   -9630.4132     2283.616   -7346.7972   -34.572712 
   82900    303.45501   -302.92612    54096.438   -9616.3021    2294.8224   -7321.4797   -240.83148 
   83000    295.42388   -102.48689    54139.325   -9599.2889    2234.0885   -7365.2005    158.78105 
   83100    299.70449   -678.81709    54089.931   -9705.0938    2266.4598    -7438.634   -20.276614 
   83200    292.71322   -213.77472    53758.879   -9672.0524    2213.5896   -7458.4627    86.198417 
   83300    300.24444    19.612385    53449.599    -9678.864     2270.543    -7408.321    13.298261 
   83400    300.83865   -547.71326    53551.514   -9703.2418    2275.0367   -7428.2051    275.19083 
   83500    291.09287    436.48789    53828.933   -9714.2068     2201.336   -7512.8709    97.812095 
   83600    290.69538    507.24294     54210.04   -9758.2499      2198.33   -7559.9199   -63.123792 
   83700     291.5129   -102.90528    54386.095   -9721.9269    2204.5124   -7517.4144   -104.69488 
   83800    293.43689   -479.35788    54439.785   -9682.5726    2219.0623   -7463.5104    153.48382 
   83900    306.44914   -75.059358    54594.771   -9711.6045     2317.465   -7394.1395   -92.066963 
   84000    300.30915   -657.69009    54739.293   -9660.8533    2271.0325   -7389.8208      69.3852 
   84100    302.78364    -110.3344    54694.667   -9682.0057    2289.7453   -7392.2604    2.2351812 
   84200    295.32833   -369.88753    54492.686   -9642.4022    2233.3659   -7409.0364    305.16017 
   84300    297.90255    383.86771    54227.635   -9686.6649    2252.8329    -7433.832   -32.871322 
   84400    291.61907    336.66122    54110.701   -9692.4536    2205.3153   -7487.1382    108.36961 
   84500    290.58061    12.925134    54108.519   -9716.8192    2197.4621   -7519.3571   -27.462237 
   84600    299.11833   -714.12183    54223.935   -9700.0825     2262.027   -7438.0554   -65.929119 
   84700    299.45597   -69.308049    54153.618   -9664.8491    2264.5804   -7400.2687   -194.43698 
   84800    305.13274    42.598593    53933.609    -9741.504    2307.5099   -7433.9941   -167.77009 
   84900    298.37555   -459.65089    53741.557   -9726.5394    2256.4099   -7470.1294   -40.926794 
   85000    299.94201   -317.02685    53633.673   -9764.1468     2268.256   -7495.8908    279.86198 
   85100     286.2852    159.46973    53605.404   -9717.6005    2164.9789   -7552.6216    29.621432 
   85200    289.18826    141.52031    53583.474   -9802.6462    2186.9327   -7615.7135    116.34588 
   85300    295.59895   -172.02977    53598.102   -9810.3611    2235.4124   -7574.9487    194.27355 
   85400    291.35072    120.13179    53707.214   -9667.3127     2203.286   -7464.0268   -86.943857 
   85500    302.20731   -116.18575    53917.599   -9701.1927    2285.3869   -7415.8058    40.627997 
   85600    297.98666    366.70708    54018.574   -9652.2079     2253.469   -7398.7389   -77.974916 
   85700    296.92394   -313.92539    54087.959   -9719.1058    2245.4324   -7473.6734    352.12307 
   85800    294.94258   -308.93508    54073.016   -9739.1454    2230.4487   -7508.6967    56.703303 
   85900    295.65325     125.7535    54100.216   -9702.2293     2235.823   -7466.4062    152.43566 
   86000    305.48409   -165.06833    54269.789   -9688.8659    2310.1669    -7378.699    96.997909 
   86100    295.19446   -227.64478    54494.237   -9615.6993    2232.3535   -7383.3459   -259.69885 
   86200    301.53007   -240.50718     54593.93   -9724.1878    2280.2654   -7443.9224   -98.207892 
   86300    288.19413   -75.720797    54629.636   -9664.2271    2179.4148   -7484.8123   -356.61884 
   86400    296.05375   -204.11317     54602.24   -9699.4633    2238.8518   -7460.6115   -113.30199 
   86500    288.15209   -65.222584    54438.658   -9616.4468    2179.0969   -7437.3499   -241.61851 
   86600    305.99126   -337.88852     54025.37   -9701.0693    2314.0023    -7387.067    328.99501 
   86700    301.00704   -136.46613    53502.396    -9675.266    2276.3101    -7398.956   -239.08462 
   86800    299.25741     299.1894    53084.691   -9748.6435    2263.0788   -7485.5646   -236.83979 
   86900    294.07267    112.16992    52850.341   -9738.5484    2223.8702   -7514.6782   -237.02868 
   87000    292.96002   -113.71292    52863.196   -9753.4057     2215.456   -7537.9497    121.06901 
   87100    298.63988   -620.81702    52946.683   -9763.0411    2258.4089   -7504.6322    46.501282 
   87200    300.12939    8.0811456    53009.256   -9693.6494     2269.673   -7423.9764     77.02746 
   87300    306.19438   -14.786649    53193.094    -9685.361    2315.5384   -7369.8227   -142.61196 
   87400    300.85609    47.403816     53526.41   -9669.7167    2275.1685   -7394.5481    43.542923 
   87500    295.78325    -569.0582    53840.855   -9761.1738    2236.8061   -7524.3677    39.831973 
   87600    292.57706    -187.6871    53980.114   -9749.6394    2212.5599   -7537.0794   -45.811868 
   87700    291.20332   -577.77912    54039.447   -9683.0941    2202.1712   -7480.9229    128.63045 
   87800    297.65996   -120.09578    54067.779   -9640.9697    2250.9984   -7389.9712    187.80428 
   87900    298.70189    338.70887    54055.991   -9617.8248    2258.8778    -7358.947    157.48428 
   88000    304.32431     98.99162     54045.74   -9649.5067    2301.3964   -7348.1104   -305.89357 
   88100    299.89345   -74.617329    54158.013   -9708.8915    2267.8888   -7441.0028    112.51391 
   88200    292.51265   -41.408519    54241.803   -9710.0982    2212.0729   -7498.0254    41.488583 
   88300    291.16226    -177.6618    54280.861   -9676.8871    2201.8608   -7475.0263   -56.421237 
   88400     296.8784   -293.12448    54272.973   -9631.8405     2245.088   -7386.7525    32.293159 
   88500    298.57343   -311.03442    54265.763   -9640.3344    2257.9063   -7382.4281   -75.502464 
   88600    303.95206   -199.40281    54372.765   -9686.8274    2298.5812   -7388.2462   -133.43132 
   88700     290.9196   -143.86729    54427.962   -9708.2074    2200.0257   -7508.1817   -39.530115 
   88800    292.09851    308.88292    54435.949   -9726.3531     2208.941   -7517.4122    24.147938 
   88900    301.06533   -40.405245    54433.853   -9746.4837    2276.7509   -7469.7328    3.8593819 
   89000    303.16444   -378.87853    54333.292   -9720.5746     2292.625   -7427.9496     117.0671 
   89100    297.50046    314.27681    54225.722   -9642.7887    2249.7922   -7392.9965    64.791073 
   89200     310.5428    484.24919    54167.881   -9648.8637    2348.4225   -7300.4412   -61.944007 
   89300    303.28108    212.61204     54379.94    -9624.848    2293.5071   -7331.3409   -272.33555 
   89400     299.6543   -493.53774    54727.981   -9699.0236    2266.0802   -7432.9434     144.5281 
   89500    296.07574    -262.8761    54920.974   -9653.7239     2239.018   -7414.7058    282.85504 
   89600     294.9344   -99.939056    55036.935   -9600.9042    2230.3868   -7370.5173    184.58929 
   89700    296.16502   -219.18526    55058.471   -9549.0295    2239.6932   -7309.3363    209.53028 
   89800    303.42032    411.63028    54856.652   -9618.7654      2294.56   -7324.2053   -416.46741 
   89900    302.82095    498.46941    54680.144   -9669.7073    2290.0274   -7379.6799    320.55432 
   90000    297.50002   -423.86143     54653.72   -9659.8607    2249.7889   -7410.0718    158.46879 
   90100    298.45376    221.54801    54577.506   -9690.0281    2257.0014   -7433.0267  -0.77194689 
   90200    305.23717    198.94422     54648.81   -9792.7565    2308.2997   -7484.4569    105.28115 
   90300    285.35052    -124.0898    54860.755   -9722.1013    2157.9105   -7564.1907    266.24125 
   90400    288.80571   -374.56417    55066.651   -9714.2659    2184.0397   -7530.2262    89.538164 
   90500    293.43422     -276.218    55048.012   -9719.0781     2219.042   -7500.0361   -257.61278 
   90600     298.0708    -816.3047     54884.11   -9704.2001    2254.1053   -7450.0948    95.856601 
   90700    302.89419    -135.4147    54424.854   -9714.3172    2290.5813    -7423.736    257.54766 
   90800    299.65346   -619.75813    54087.026   -9781.9667    2266.0739   -7515.8928    245.65156 
   90900    291.85686   -239.31204    53994.019   -9747.4984    2207.1135   -7540.3848    121.81681 
   91000    295.34988    129.07342    54089.481   -9742.5345    2233.5289   -7509.0057   -54.352075 
   91100    302.40626   -330.72339    54292.149   -9757.2291    2286.8915   -7470.3377    22.404109 
   91200    299.94026   -92.884023    54609.709    -9740.769    2268.2428   -7472.5263   -172.58736 
   91300     295.3707   -498.88108    54935.812   -9771.5213    2233.6863   -7537.8351   -19.899108 
   91400    291.07147   -83.424124     54994.95    -9775.898    2201.1741   -7574.7238   -37.320556 
   91500    297.36891   -175.20678    54990.446   -9788.3155    2248.7974   -7539.5181   -85.806824 
   91600     307.9689   -245.71084    55157.929   -9792.5669    2328.9579   -7463.6091    131.99415 
   91700    298.74802   -191.34664    55325.452   -9724.3197    2259.2267    -7465.093   -381.15075 
   91800     296.0399    146.43875     55294.27    -9679.195     2238.747   -7440.4479    258.77049 
   91900    304.83929    172.14494     55054.93   -9659.4669    2305.2908   -7354.1761   -9.6051609 
   92000    302.42206   -383.04566    54940.382   -9670.8692    2287.0109   -7383.8583    405.91285 
   92100    294.27375    -55.82826    54896.169   -9688.7463    2225.3908   -7463.3555   -84.072436 
   92200    292.67326   -347.98809     54760.13    -9691.242    2213.2874   -7477.9546    243.93955 
   92300    298.00451    5.0461253    54588.162   -9680.4165     2253.604   -7426.8125    490.69203 
   92400    295.98989   -358.55985    54312.583   -9643.4413    2238.3689   -7405.0725    374.00508 
   92500    302.05524   -97.542696    54325.419   -9667.9891    2284.2369   -7383.7522    86.743287 
   92600    296.67616   -746.58159    54523.981   -9623.4884    2243.5586   -7379.9298   -137.26478 
   92700     302.2889   -292.48356    54481.394   -9660.1019    2286.0039    -7374.098   -225.37179 
   92800    300.72183    6.6770458    54450.013   -9653.1284    2274.1533   -7378.9751    152.83067 
   92900    303.25799   -151.24789    54488.179   -9695.6688    2293.3325   -7402.3363   -26.650751 
   93000    291.78052   -398.51786    54403.604   -9685.5906    2206.5363   -7479.0543    54.928567 
   93100    297.99636   -156.76766    54203.724   -9740.7748    2253.5424   -7487.2325    268.21989 
   93200    298.25161    349.86419    54117.102   -9714.1655    2255.4726   -7458.6928    79.112522 
   93300    295.84776    136.74157    54187.549   -9626.8112     2237.294   -7389.5172    53.376014 
   93400    309.63057    855.27911     53950.77   -9659.4585    2341.5239   -7317.9346    167.37697 
   93500    311.38659    84.511835    53675.831   -9735.9672    2354.8035   -7381.1637    153.86753 
   93600    296.15316    158.75985    53475.087   -9681.4627    2239.6035   -7441.8591   -172.43895 
   93700    297.08781    364.11064    53309.884    -9712.752    2246.6716   -7466.0804   -5.9231777 
   93800    301.56863    43.480195    53254.264   -9765.8187     2280.557   -7485.2617    18.552769 
   93900    297.10863   -47.002374    53364.033    -9693.071    2246.8291   -7446.2419    -220.7274 
   94000    297.25925    8.9996644    53636.216   -9643.7516    2247.9681   -7395.7835    13.312196 
   94100    305.08299    49.872027    54048.366   -9671.2765    2307.1337   -7364.1428    75.417412 
   94200    296.15914   -436.10562    54428.211   -9587.8463    2239.6487   -7348.1976    334.70739 
   94300    298.15919   -457.67426    54480.065   -9681.9731    2254.7738   -7427.1993    39.333467 
   94400    294.86777   -462.62565    54406.059   -9719.3291     2229.883   -7489.4462    384.43364 
   94500    300.27651   0.86408566    54315.332   -9710.7731    2270.7856   -7439.9876    58.294787 
   94600    307.08368    186.52561    54260.509   -9711.7299    2322.2636   -7389.4664   -117.62854 
   94700    300.59614   -347.64692    54396.813   -9661.3954    2273.2027   -7388.1926    256.00217 
   94800    300.07519    158.91555    54650.242   -9655.3958    2269.2632   -7386.1326    136.91306 
   94900    292.15249   -1041.7324    55058.538   -9596.1289    2209.3492   -7386.7797   -19.563252 
   95000     292.8283    -139.7844    55167.041   -9638.9735    2214.4598   -7424.5137     29.94872 
   95100    300.07864   -246.20312    55128.882   -9711.8288    2269.2892   -7442.5396     100.2052 
   95200    296.21935    31.657033    55157.118   -9701.6133     2240.104   -7461.5092    382.88376 
   95300    287.21382    49.183769    55226.183   -9684.4143    2172.0014   -7512.4129    202.92285 
   95400    295.25021    510.34986    55187.501   -9708.4414    2232.7751   -7475.6663    -33.47442 
   95500    293.73965    402.23863    55074.783   -9619.2975    2221.3518   -7397.9458    240.01806 
   95600    297.34596    108.87584      54972.2     -9594.92    2248.6239   -7346.2961    100.31551 
   95700    303.17506    120.15705    54775.609    -9635.426    2292.7053   -7342.7207    44.588545 
   95800    293.84992   -178.75251    54740.872    -9632.147    2222.1857   -7409.9613   -114.74402 
   95900     294.6916    22.074236    54739.392   -9690.0061    2228.5507   -7461.4554    137.78329 
   96000    299.05735   -139.93475    54592.008      -9723.1    2261.5659   -7461.5341    180.20065 
   96100    302.43698   -522.02795    54357.872   -9718.6199    2287.1237   -7431.4961    129.22667 
   96200    298.95959    -289.1271     54226.65   -9666.0464    2260.8266   -7405.2198   -15.836923 
   96300    299.57326   -35.369439    54283.754   -9682.9997    2265.4674   -7417.5323    52.656939 
   96400    299.56181   -568.58664    54390.664   -9757.1116    2265.3808   -7491.7308    -40.40622 
   96500    292.84374   -433.03846    54166.862    -9740.199    2214.5766   -7525.6224   -45.845973 
   96600    296.78663    35.617378    53919.981   -9697.7173     2244.394   -7453.3232   -127.92572 
   96700     305.0189    202.05089    53850.261   -9692.3712    2306.6491   -7385.7221   -198.82635 
   96800    294.55811   -713.56263    53897.702   -9654.9468    2227.5412   -7427.4056    32.940894 
   96900    298.77622   -721.40557    54012.436   -9701.1978    2259.4399   -7441.7579    359.65673 
   97000    296.75442   -629.12864    54330.027   -9691.4451    2244.1504   -7447.2947    39.405395 
   97100    301.81364   -468.36523    54504.536   -9690.6844    2282.4098   -7408.2746    156.06214 
   97200    303.33098   -320.14726    54294.431   -9636.0053    2293.8845   -7342.1208      95.0887 
   97300    299.88645   -59.681006     54113.81   -9643.4549    2267.8358   -7375.6191    129.59436 
   97400    303.49165    291.79371    53998.144   -9764.3164    2295.0995   -7469.2169   -62.539699 
   97500    294.22263    541.18609    53871.126    -9709.014    2225.0042   -7484.0098   -69.348094 
   97600    295.79655   -442.30413    53962.423   -9734.5255    2236.9067   -7497.6187    136.54654 
   97700    294.14788    95.826342    53946.733   -9669.9745    2224.4389   -7445.5355    246.53338 
   97800    306.12107   -31.491553    53961.641   -9697.7685     2314.984   -7382.7844    76.582016 
   97900    297.49325    1250.5118    53893.642   -9622.0547    2249.7377    -7372.317    150.93945 
   98000    295.49356   -74.077581    54210.102   -9688.2898    2234.6154   -7453.6745    -144.9878 
   98100    298.07003   -506.35841    54395.768   -9741.8059    2254.0995   -7487.7064    99.307878 
   98200    297.80546   -543.82905    54330.567   -9723.4502    2252.0988   -7471.3514    37.794265 
   98300     306.8731   -463.44128    54218.246   -9754.0689    2320.6711   -7433.3978    168.92566 
   98400    298.19209   -7.5900911    54149.774   -9637.2844    2255.0226   -7382.2618    615.73382 
   98500    298.11998   -590.99112    54396.325   -9580.9955    2254.4773   -7326.5183    42.864226 
   98600    310.81291   -449.94828    54613.016   -9624.8306    2350.4652   -7274.3654   -96.913505 
   98700    300.76502    -232.8715    54756.041   -9629.0391    2274.4799   -7354.5592    196.43025 
   98800    298.72706   -35.839348    54788.061   -9668.9935    2259.0681   -7409.9254   -233.83216 
   98900    301.58831   -536.99949    54641.501   -9713.1985    2280.7058   -7432.4927   -5.0389043 
   99000    301.90726    218.62997    54493.178    -9733.039    2283.1178   -7449.9211    117.14014 
   99100    295.78386   -172.43555    54475.683   -9768.7269    2236.8108   -7531.9161    267.98295 
   99200    295.18566   -150.66226    54347.568   -9775.8476     2232.287   -7543.5606    15.258097 
   99300    297.24961   -526.14357    54143.225   -9746.8422    2247.8952    -7498.947    351.55678 
   99400    296.98374    267.37104    53889.639   -9663.4539    2245.8846   -7417.5693   -11.368141 
   99500    297.83666    587.27478    53825.097   -9656.5153    2252.3347   -7404.1806    354.05225 
   99600    296.96734   -583.02211    53949.994   -9685.2508    2245.7606   -7439.4902    -143.6737 
   99700    303.83142   -257.81059    53940.039   -9769.9944     2297.669   -7472.3255     75.40307 
   99800    296.30748    207.81378     54071.04   -9770.7353    2240.7705   -7529.9648    68.355989 
   99900    290.14141   -239.82198    54470.383   -9756.3208    2194.1408     -7562.18   -85.290678 
  100000    295.49863   -822.59805    54729.434   -9714.9853    2234.6537   -7480.3316    138.10587 
  100100    294.49353   -200.25329     54603.69   -9623.0509    2227.0529   -7395.9981   -42.019211 
  100200    301.38086    750.75724    54282.924   -9668.5005     2279.137   -7389.3635   -18.373325 
  100300    296.90073   -271.17676    54278.175   -9714.2053    2245.2568   -7468.9485   -124.32786 
  100400    294.55201   -435.47505    54229.033   -9736.2897    2227.4951   -7508.7945    98.223991 
  100500    297.48806   -424.44987    54366.652   -9751.0972    2249.6985   -7501.3987    48.430146 
  100600    296.59644    8.8673453    54613.624   -9698.0815    2242.9557   -7455.1258    107.75304 
  100700    302.77263   -558.00702    54689.056    -9667.851     2289.662    -7378.189     13.47592 
  100800    304.06824   -419.05206    54608.133   -9622.7395    2299.4598   -7323.2797    182.09506 
  100900    306.57725   -278.76791    54544.698   -9561.0439    2318.4338   -7242.6102    144.68507 
  101000    304.14613    150.82999    54538.848   -9532.2168    2300.0488    -7232.168    38.135771 
  101100    302.10291    389.54859    54350.835   -9634.7123    2284.5974   -7350.1149    123.39962 
  101200    301.58681    7.5591832    54202.592   -9688.5889    2280.6945   -7407.8944   -37.506743 
  101300    298.48911    81.610347    54135.608   -9716.9197    2257.2687    -7459.651    77.117028 
  101400    295.40256    187.57769    54135.468   -9702.5928    2233.9272   -7468.6655   -219.30054 
  101500    299.39861   -70.475009    54145.474   -9734.4963    2264.1466   -7470.3497    73.719456 
  101600    295.17325    -201.5411    54195.809   -9712.0336    2232.1931   -7479.8404    141.73973 
  101700    295.40941     23.81132    54206.203   -9714.8861     2233.979    -7480.907    49.088699 
  101800    301.71696    66.044067    54214.679   -9736.9282    2281.6787   -7455.2495   -278.50333 
  101900    305.41529   -491.23041    54242.924   -9726.1074    2309.6467   -7416.4607    146.95445 
  102000    299.89421   -579.97178    54386.542   -9713.0898    2267.8945   -7445.1953    19.315074 
  102100    292.95172   -430.69655    54573.767   -9737.3439    2215.3932   -7521.9507    9.6223955 
  102200    289.07804   -428.40015    54682.564   -9702.8035    2186.0993   -7516.7043    253.41072 
  102300    299.64552    210.45513    54717.606   -9738.0129    2266.0139   -7471.9991    90.622397 
  102400    303.40992    207.26532    54914.912   -9746.4804    2294.4815    -7451.999    68.456716 
  102500     293.7096    87.100836    55090.794   -9701.1507    2221.1245   -7480.0262    56.624909 
  102600    292.71391   -308.97022     55129.38   -9691.4397    2213.5948   -7477.8449    1.9726543 
  102700    298.31683   -127.10702    55118.068   -9693.3909    2255.9659    -7437.425    78.584871 
  102800    301.91847    264.17967    54864.989   -9656.7197    2283.2026   -7373.5171   -111.46592 
  102900    297.33345    563.37645    54521.151   -9656.6461    2248.5293   -7408.1168    179.28395 
  103000    295.91759    341.32521    54353.638   -9765.1348    2237.8221   -7527.3127   -9.3237064 
  103100    295.54357   -145.79735    54345.898   -9746.1937    2234.9936      -7511.2    54.600619 
  103200    299.65585   -250.75635    54256.696   -9754.2485     2266.092   -7488.1565    212.66782 
  103300    296.92784   -100.97075    54212.074   -9692.9589    2245.4619    -7447.497   -195.46967 
  103400    301.80833    -188.7753     54223.12   -9715.2565    2282.3697   -7432.8868    132.40484 
  103500    303.20748    232.84116    54265.877   -9689.2212    2292.9505   -7396.2707    10.294906 
  103600    305.99494   -339.06681    54392.622   -9629.8607    2314.0301   -7315.8306    319.89019 
  103700    307.21217   -315.52254    54470.638   -9665.8637    2323.2353   -7342.6284    65.685238 
  103800    290.90125    -143.9066    54485.061   -9626.9446    2199.8869   -7427.0577   -99.694849 
  103900    293.93407   -213.49696    54468.685   -9664.4917    2222.8221   -7441.6696    144.37219 
  104000    301.16397   -106.00465    54612.568    -9691.399    2277.4968   -7413.9022    107.28207 
  104100    295.93345   -2.2035526     54832.67   -9615.0132     2237.942   -7377.0712    147.30629 
  104200    306.52216   -476.43397    54908.759   -9606.4885    2318.0171   -7288.4713     132.3948 
  104300    307.75482   -860.33587    54857.989   -9643.8449    2327.3389    -7316.506    295.60161 
  104400    294.00379    703.68025    54807.043   -9596.8643    2223.3493    -7373.515     22.88685 
  104500    296.05962    23.908688    54927.555    -9627.173    2238.8962   -7388.2768   -79.686351 
  104600    301.79592   -469.93109    55056.916   -9696.9595    2282.2759   -7414.6836   -64.256744 
  104700    292.74041    -367.9264    54811.936   -9668.8689    2213.7952   -7455.0737    143.20759 
  104800    294.38681    381.24508    54354.776   -9706.1721    2226.2458   -7479.9263    90.497377 
  104900    292.32289     244.6991    54121.964   -9646.4782    2210.6378   -7435.8404    197.70308 
  105000    300.31355    226.99022    54005.181   -9670.4897    2271.0657    -7399.424   -8.2247267 
  105100    296.77307   -81.321443    54169.329   -9643.8256    2244.2915   -7399.5341    64.028873 
  105200    295.51041    412.86801    54324.362   -9699.9827    2234.7428   -7465.2399   -127.36981 
  105300    293.05144   -79.666996    54500.811   -9737.4683    2216.1473    -7521.321    253.73049 
  105400    300.65268     77.76434    54362.184   -9756.1427    2273.6303   -7482.5125    167.74145 
  105500    293.18219   -37.168867    54258.011   -9701.8521    2217.1361    -7484.716    255.56378 
  105600    295.34884    86.292142    54443.727   -9734.3176     2233.521   -7500.7966    2.0180466 
  105700    295.30313   -312.54493    54608.092   -9761.0551    2233.1753   -7527.8797    192.54448 
  105800    296.18089   -350.38488    54596.889   -9727.3624    2239.8132   -7487.5492    11.463301 
  105900    304.67175   -172.83884    54539.684   -9698.5867    2304.0238   -7394.5629   -72.549175 
  106000    293.61854   -614.73007    54682.661    -9626.937    2220.4359   -7406.5011      143.692 
  106100    302.27132   -203.22493    54644.829   -9697.6092    2285.8709   -7411.7383     157.1648 
  106200    294.45766   -1077.2223    54729.022   -9697.5176    2226.7816    -7470.736    110.58807 
  106300     287.2889   -873.08722    54770.214   -9674.7292    2172.5692     -7502.16     28.57314 
  106400    300.32969   -370.20822    54629.464   -9717.9773    2271.1877   -7446.7895   -11.280784 
  106500    304.82008   -1051.9041    54595.288   -9684.7193    2305.1455   -7379.5739    161.26333 
  106600    301.13185   -441.74841    54707.368   -9683.0243     2277.254   -7405.7703    269.06475 
  106700    293.04816   -346.83972    54864.743   -9639.7127    2216.1225   -7423.5901   -83.089959 
  106800    299.42787   -122.50412    54902.288   -9650.0748    2264.3679   -7385.7069     300.9209 
  106900    298.06122    176.99588    54893.491   -9560.4011    2254.0328   -7306.3683   -113.78032 
  107000    296.47162    654.87281    54836.442   -9542.4142    2242.0118   -7300.4023    265.48711 
  107100    291.41306    388.18578    55070.181   -9533.3156    2203.7574   -7329.5582    96.600432 
  107200    296.73824    245.54153    55291.202   -9609.3066    2244.0281   -7365.2786   -100.23073 
  107300    291.90721    269.22055     55232.94   -9607.1468    2207.4943   -7399.6526    64.313299 
  107400    300.99456   -93.716971    55020.366   -9686.9829    2276.2157   -7410.7672    128.06345 
  107500    288.23972    354.01118    54790.628   -9713.6287    2179.7596   -7533.8691    -283.4783 
  107600    291.64956    397.33576    54443.915   -9754.0083    2205.5459   -7548.4624    58.211729 
  107700    299.30494    362.82935    54092.303   -9756.4219    2263.4383   -7492.9836    22.837804 
  107800    300.43305   -733.99241    53838.638   -9719.9648    2271.9694   -7447.9954    101.67195 
  107900    302.51722   -730.62208    53822.607   -9696.1153    2287.7305   -7408.3848    -13.78397 
  108000    304.07167   -577.29603    53938.185   -9687.3807    2299.4858    -7387.895    145.67682 
  108100    310.84521   -1005.3765    54094.631   -9733.4614    2350.7094    -7382.752   -61.258375 
  108200    299.78139   -787.18468    54227.581   -9704.6728    2267.0413   -7437.6315   -203.07255 
  108300    290.05157    -809.6859    54321.683   -9694.7006    2193.4614   -7501.2392   -102.74677 
  108400    292.59204    -163.9321    54176.629   -9726.6998    2212.6732   -7514.0266    46.034838 
  108500     296.7714   -458.43662    53943.696   -9700.5416    2244.2789   -7456.2628    231.57107 
  108600     296.4763    69.897951    53777.482   -9606.8408    2242.0472   -7364.7936    131.30143 
  108700    300.55606    564.00926    53706.056   -9623.2996    2272.8996      -7350.4    196.57593 
  108800    303.15305    314.14805    53901.468    -9695.689    2292.5389   -7403.1501     498.7074 
  108900    302.74798    83.144799    54242.547   -9730.4718    2289.4756   -7440.9962    94.654282 
  109000    293.17319    77.597111    54609.146   -9684.4146     2217.068   -7467.3466   -151.54331 
  109100     304.7275   -262.71083    54815.814   -9760.0078    2304.4454   -7455.5624   -190.38599 
  109200    296.43558    73.931408    54659.645    -9684.032    2241.7393   -7442.2927    142.18927 
  109300    304.92974   -376.32764    54478.682   -9722.7147    2305.9748   -7416.7399    139.14882 
  109400    298.07733     101.7932    54234.336   -9682.6882    2254.1547   -7428.5335   -161.41984 
  109500    305.05035   -1073.3817    54175.307   -9819.6227    2306.8869   -7512.7359    201.48466 
  109600     292.6755   -189.59878    54153.249   -9746.4301    2213.3044   -7533.1257    2.0307447 
  109700     296.3231    -699.7852    54143.438   -9761.2594    2240.8887   -7520.3708   -403.47488 
  109800    298.04301    -366.8455    54051.027   -9693.2669    2253.8951   -7439.3717   -79.292635 
  109900    301.14178   -713.91734     53914.33   -9721.9728     2277.329   -7444.6438   -89.706977 
  110000    299.86477   -452.65956    53774.504   -9716.9232    2267.6719   -7449.2513   -52.487736 
  110100    303.70916    178.22521    53538.572   -9736.2059    2296.7444   -7439.4615    154.47652 
  110200    295.18899    633.00227    53419.418   -9729.8854    2232.3122   -7497.5732    66.556196 
  110300    295.45575    200.48993     53594.26   -9756.7948    2234.3295   -7522.4654    38.542189 
  110400    292.24416    337.38256    53657.657   -9694.1247    2210.0425   -7484.0823   -103.70544 
  110500    302.44781    592.79687    53714.089    -9697.869    2287.2057   -7410.6634    -229.9246 
  110600    295.67713    309.73705    53920.268   -9647.3978    2236.0036   -7411.3941    313.26014 
  110700    295.37728   -304.83535    54273.246    -9665.828    2233.7361    -7432.092    117.64792 
  110800    296.89973   -212.17158    54537.063   -9668.7311    2245.2493   -7423.4817    224.95033 
  110900    289.70816    339.87216     54647.81    -9576.238    2190.8644   -7385.3737    71.974143 
  111000    300.91924   -289.28153    54863.717   -9536.0322    2275.6461   -7260.3861    42.869235 
  111100    303.96057   -864.94699    54908.193   -9549.8563    2298.6456   -7251.2107   -84.020283 
  111200    308.36565   -438.93242    54882.461   -9664.7367    2331.9582   -7332.7786   -132.12358 
  111300    299.41091   -287.78487    54803.469   -9655.9259    2264.2397   -7391.6862    33.400867 
  111400    298.51099   -975.54373    54665.693   -9724.6038    2257.4342   -7467.1696   -36.862113 
  111500    299.01241   -228.50908    54407.787   -9760.0597    2261.2261   -7498.8336   -9.3202927 
  111600    303.36005   -179.36458    53999.858   -9792.6271    2294.1043   -7498.5228  0.064887371 
  111700    299.73942    878.32559    53607.692   -9755.1182    2266.7239   -7488.3942    306.48427 
  111800    299.39517    93.716774    53718.501    -9744.971    2264.1206   -7480.8504   -59.616965 
  111900    296.71552   -54.401849    53866.209   -9707.8473    2243.8562   -7463.9911    2.4924589 
  112000    297.20437   -85.310592    54090.223   -9714.6773    2247.5531   -7467.1242   -8.4599245 
  112100    294.09542   -200.14751    54259.795   -9688.2872    2224.0423    -7464.245    189.91588 
  112200    297.46435   -545.81895    54395.983   -9702.4946    2249.5192   -7452.9754    17.503037 
  112300    294.09754   -239.46496     54353.72   -9640.5896    2224.0583   -7416.5313   -89.727877 
  112400    297.95335   -336.21394      54148.9   -9609.4248    2253.2171   -7356.2077    174.07234 
  112500     311.0406    250.63606    53906.137   -9710.4431     2352.187   -7358.2561   -86.921377 
  112600    296.43305   -550.61308    54035.301   -9702.0652    2241.7201    -7460.345    -140.7149 
  112700    303.09797   -830.82625    54047.061   -9777.9079    2292.1224   -7485.7855   -146.49807 
  112800    296.40057   -397.62469    53893.456   -9705.4905    2241.4745    -7464.016    278.32173 
  112900    300.18988    477.06875    53787.571    -9688.866    2270.1305   -7418.7355    7.9988665 
  113000    305.26251   -685.72896    53978.645   -9718.6944    2308.4913   -7410.2031    221.69709 
  113100    290.08742   -313.06713     54227.31   -9710.3693    2193.7325   -7516.6368   -49.921934 
  113200    294.67285    410.66814    54436.336   -9763.0377     2228.409   -7534.6287    189.50407 
  113300     298.7213   -148.00881    54646.648   -9699.3862    2259.0246   -7440.3616   -183.23607 
  113400    299.49681    340.52765    54604.315    -9681.948    2264.8892   -7417.0587    87.935064 
  113500    300.76765    101.29827    54609.019   -9689.8994    2274.4997   -7415.3997    72.038432 
  113600    298.25466    59.442875    54532.781   -9694.1448    2255.4957    -7438.649   -78.639861 
  113700    296.79105   -280.32823    54383.946   -9755.4605    2244.4274   -7511.0331    95.804135 
  113800    290.08242   -345.04787    54058.719   -9751.6417    2193.6947    -7557.947    -157.1169 
  113900    290.96121    232.95991    53677.922   -9704.4633    2200.3404    -7504.123   -136.90868 
  114000    296.21738    50.808955    53511.346   -9683.6694    2240.0892   -7443.5802    136.83432 
  114100    300.27855    22.795273    53713.564   -9728.0538     2270.801   -7457.2527   -95.527602 
  114200    293.12788   -292.76395    53997.665   -9687.6192    2216.7254   -7470.8938    65.496963 
  114300    293.55587    -91.87442    54077.082   -9681.5847     2219.962   -7461.6228    254.61005 
  114400    296.53599   -264.04289    54221.653   -9660.0331    2242.4986   -7417.5345    123.84477 
  114500    298.04914   -268.30449    54442.606   -9677.7333    2253.9415   -7423.7918    108.07731 
  114600    294.59756   -360.06473    54760.418   -9666.2496    2227.8396     -7438.41    92.657358 
  114700    296.24039    -819.3541    54878.008   -9668.2971    2240.2632   -7428.0339   -59.624635 
  114800    300.95473   -349.83492     54611.62   -9695.4127    2275.9145   -7419.4982    127.29231 
  114900    301.08803   -168.58852    54392.422   -9732.0814    2276.9226   -7455.1589    156.35027 
  115000    299.04741   -431.15859    54235.921   -9754.7207    2261.4907     -7493.23    96.330507 
  115100    294.15675    -263.4237    53986.722   -9727.2734    2224.5061   -7502.7673    225.20905 
  115200    300.21027   -238.92777    53699.103   -9770.0809    2270.2847   -7499.7962    136.37066 
  115300    304.43752   -348.67423    53404.614   -9779.1357    2302.2524   -7476.8833    181.60098 
  115400     300.7602    62.216151    53251.934   -9700.0408    2274.4434   -7425.5974   -194.08199 
  115500     301.0113   -684.34251    53223.502   -9724.3282    2276.3423   -7447.9859   -3.2759417 
  115600     297.7376   -353.11361    53038.035   -9775.2689    2251.5855   -7523.6833   -178.58501 
  115700    298.53544   -267.30523    53035.694   -9820.6562    2257.6191   -7563.0372    271.71993 
  115800    296.07956   -304.74102    53204.012    -9794.719    2239.0469    -7555.672   -444.72855 
  115900    300.31247    37.440973    53322.733   -9788.5773    2271.0576   -7517.5197   -82.592303 
  116000    306.15104   -64.206882    53586.638   -9719.0181    2315.2106   -7403.8075    4.8394566 
  116100    301.08718   -12.067612    53963.496   -9689.0979    2276.9161   -7412.1817    64.625877 
  116200    296.13883    125.31416    54221.257   -9718.5699    2239.4952   -7479.0747    81.493476 
  116300    290.28902    62.947152    54443.697   -9679.7158    2195.2571   -7484.4588    192.02076 
  116400    298.05433   -239.41585    54568.189   -9674.1652    2253.9807   -7420.1845    398.34027 
  116500    299.91181   -224.22166    54525.349   -9678.9632    2268.0276   -7410.9356    270.42299 
  116600    304.36308   -275.12301    54415.944   -9696.7262    2301.6895   -7395.0367   -66.065219 
  116700    296.52767     325.7023    54177.361   -9654.2066    2242.4356   -7411.7709    68.567274 
  116800    292.69809   -198.35362    54012.765   -9698.8788    2213.4752   -7485.4036   -20.874237 
  116900    291.17848   -250.14089    53844.538   -9730.5687    2201.9834   -7528.5853    316.67843 
  117000    293.54288    183.36439    53746.691   -9766.0623    2219.8638   -7546.1985    215.80962 
  117100    295.35986      161.045    53792.023   -9754.9308    2233.6043   -7521.3265   -3.0954007 
  117200    302.58502   -844.08477    54170.416   -9724.2888    2288.2433   -7436.0455    29.761985 
  117300    304.90274   -550.45357    54409.122    -9693.249    2305.7706   -7387.4785     63.34402 
  117400    294.78253   -251.51462    54475.346    -9625.585    2229.2384   -7396.3466   -44.535154 
  117500    297.97235  -0.76635603    54565.532   -9660.5312    2253.3608   -7407.1704    71.738974 
  117600    297.37901   -393.02943    54714.356   -9720.2365    2248.8738   -7471.3627    12.846702 
  117700     294.3741     -579.186    54734.356   -9748.3263    2226.1497   -7522.1766   -22.003383 
  117800    296.68718    582.87408    54687.411   -9751.4554    2243.6419   -7507.8135   -1.3674662 
  117900    300.13367    143.41338    54693.239   -9685.7039    2269.7054   -7415.9985    120.89049 
  118000    303.39267   -328.43842    54632.876   -9661.7106     2294.351   -7367.3597   -43.734101 
  118100    306.57589   -325.29419    54587.666    -9700.982    2318.4235   -7382.5584   -197.06394 
  118200    300.34406   -775.73888     54647.24   -9734.2825    2271.2964   -7462.9861   -122.63361 
  118300    293.60689    -111.7765    54510.484   -9705.3285    2220.3478   -7484.9807   -0.8051179 
  118400    293.91827   -483.29926    54376.459   -9669.3559    2222.7026   -7446.6533   -276.91076 
  118500    298.41437    81.229321    54197.264   -9672.0268    2256.7035   -7415.3233    38.692338 
  118600    302.12942    107.50685    54203.081   -9665.3512    2284.7979   -7380.5533    82.547982 
  118700    295.55289   -273.94074    54357.366   -9700.6003    2235.0641   -7465.5362    56.419552 
  118800     289.0208    275.47969     54224.72   -9695.6676    2185.6664   -7510.0012   -106.17619 
  118900    296.44973    74.951186    53938.198   -9720.9762    2241.8463   -7479.1299    198.59261 
  119000    306.60831   -53.492275    53779.108   -9766.1478    2318.6687   -7447.4792   -122.24129 
  119100    298.60887    80.270915    53755.659   -9701.1533    2258.1744    -7442.979    59.598456 
  119200    297.79402   -501.00146    53959.538   -9719.0047    2252.0122   -7466.9924    259.63783 
  119300    303.01321   -563.51444    53932.642   -9823.4638    2291.4814   -7531.9824   -49.790535 
  119400    294.56347    103.92536    53747.104   -9803.6572    2227.5817   -7576.0755     12.38448 
  119500    293.38632    369.31784    53697.836   -9844.3191    2218.6798   -7625.6392    8.6861995 
  119600    291.94907   -158.92691    53741.597    -9825.948    2207.8109   -7618.1371    -4.242443 
  119700    294.51215   -284.04941    53856.804   -9756.7644    2227.1936   -7529.5708    72.627435 
  119800     298.3916   -15.793984    53961.749   -9724.8327    2256.5313   -7468.3014   -150.68659 
  119900    301.75057   -196.87826    53979.659   -9758.0279    2281.9329    -7476.095    37.118586 
  120000    293.33118    73.179901    54024.751    -9767.564    2218.2628   -7549.3011    153.48068 
  120100    300.78972   -167.66004    54048.906   -9842.7999    2274.6666   -7568.1333    119.07201 
  120200     297.8294    -101.2216    53953.729   -9761.8727    2252.2798   -7509.5929    397.74863 
  120300    300.17898   -260.52082    53949.929   -9690.3728    2270.0481   -7420.3247   -76.948827 
  120400    304.45284    181.84711    53863.852    -9644.467    2302.3683   -7342.0987    221.38627 
  120500    305.08244     296.2684    53743.389   -9693.0659    2307.1295   -7385.9363   -227.46786 
  120600    300.19885   -73.919267    53701.048   -9695.6086    2270.1983   -7425.4104    134.91011 
  120700    296.16694   -231.89455     53600.75   -9709.4559    2239.7077   -7469.7482   -131.31463 
  120800    298.49309   -139.50434    53474.714   -9738.9956    2257.2988   -7481.6968    42.513529 
  120900    302.67649   -505.73108    53443.205    -9728.426     2288.935    -7439.491    -336.6949 
  121000    302.65991   -104.17006    53257.576   -9695.6519    2288.8096   -7406.8423   -159.84407 
  121100    298.12497    93.031202    53120.026   -9659.7605     2254.515   -7405.2455   -14.237481 
  121200     305.3693    -319.6388    53093.492   -9808.8979    2309.2989   -7499.5991   -283.98736 
  121300    291.69341    536.58855    53194.046   -9756.1457    2205.8775   -7550.2682   -398.52318 
  121400     292.7482    488.72411    53505.094   -9781.5529    2213.8541   -7567.6988   -190.41186 
  121500     295.3579    121.04948    53871.581   -9726.9641    2233.5895   -7493.3745    27.494837 
  121600    303.17906    24.534152    54235.641   -9726.5171    2292.7356   -7433.7814    264.39615 
  121700    290.78266   -212.76047    54512.269   -9649.2483    2198.9901   -7450.2582   -391.11884 
  121800    300.45818    61.575243    54457.798   -9705.0126    2272.1594   -7432.8532    158.38863 
  121900    303.89641   -226.13123    54355.848    -9686.602    2298.1604   -7388.4416   -449.38839 
  122000    306.11089   -18.391264    54100.089   -9600.9832     2314.907   -7286.0761   -99.387922 
  122100    304.84853    451.33969    53893.251    -9589.492    2305.3606   -7284.1314    233.34555 
  122200    296.44861    101.19457    53825.426   -9627.8277    2241.8378   -7385.9899    102.98877 
  122300    303.25563     -222.181    53834.247   -9712.6364    2293.3147   -7419.3217    12.145532 
  122400    294.97812   -782.32252      53905.5   -9686.9666    2230.7175   -7456.2491    51.544876 
  122500    296.19954   -392.94019    54003.304   -9703.3019    2239.9542   -7463.3477    198.99039 
  122600    300.31679   -170.85173    54175.139   -9712.8015    2271.0902   -7441.7113    -390.8838 
  122700    305.76674   -325.29802    54329.982    -9672.001    2312.3044   -7359.6966    12.725332 
  122800    301.98434    -375.4793    54532.518   -9650.5742    2283.7008   -7366.8734   -269.71176 
  122900    292.51918    127.65942    54465.505   -9671.4248    2212.1222   -7459.3026   -106.44602 
  123000    293.10211   -212.25014    54311.678   -9700.3189    2216.5305   -7483.7884    105.83731 
  123100    295.64687   -226.69272    54242.966   -9672.0699    2235.7748   -7436.2951    104.81453 
  123200      301.391    167.98009    54220.246   -9664.4487    2279.2137    -7385.235    66.889354 
  123300    300.07505   -432.72576    54331.922   -9645.8541    2269.2621    -7376.592      282.061 
  123400    294.92178   -509.77637    54535.321   -9649.2824    2230.2914    -7418.991   -55.829663 
  123500    301.25277   -26.396917    54375.401   -9707.9362    2278.1683   -7429.7678    81.899532 
  123600    296.58985      283.859    54054.819   -9698.0144    2242.9059   -7455.1085   -138.37074 
  123700    297.76249    529.99425    53805.069   -9687.2281    2251.7738   -7435.4544   -209.68575 
  123800    293.59459    357.89586    53694.175   -9645.8213    2220.2548   -7425.5665   -2.2091239 
  123900    303.04675    296.89633    53678.665   -9701.2843     2291.735   -7409.5493   -68.779676 
  124000    290.01354   -123.81247    53853.837   -9677.7993    2193.1737   -7484.6256   -280.16671 
  124100    298.69889   -224.62371     53860.96   -9784.5173    2258.8551   -7525.6622   -200.91911 
  124200    297.60827   -415.35863     53896.26   -9747.0305    2250.6075    -7496.423    123.40333 
  124300    297.32887    -512.7118     54070.23   -9716.9689    2248.4946   -7468.4743    7.0336702 
  124400    304.42587   -551.56524    54149.789   -9672.5117    2302.1643   -7370.3474    16.390084 
  124500    302.58691    253.71466    54039.948   -9627.9371    2288.2576   -7339.6796    124.37677 
  124600    299.77159   -172.53251    53878.464   -9652.8554    2266.9672   -7385.8882    21.120154 
  124700     298.8917   -17.992789    53820.892   -9717.9686    2260.3132   -7457.6553    76.164383 
  124800    296.28672   -700.56816    53900.178   -9730.2028    2240.6136   -7489.5892    145.77706 
  124900    296.71798   -408.89227    53825.384   -9706.1858    2243.8749   -7462.3109    421.52089 
  125000    300.00473    46.047945    53633.524   -9699.1504    2268.7303   -7430.4201    263.63491 
  125100     291.0074   -257.21516    53783.685   -9642.0509    2200.6896   -7441.3612    74.147107 
  125200    305.04823    150.14118    53966.628   -9738.0569    2306.8708   -7431.1861    113.09971 
  125300    303.62389   -45.129221    54262.652     -9656.36    2296.0996   -7360.2605   -181.82788 
  125400    303.31936   -429.36906    54556.142   -9646.6364    2293.7966   -7352.8398    253.32846 
  125500     296.6398   -755.12716    54533.781   -9617.5383    2243.2836   -7374.2547   -105.10185 
  125600    288.50134   -673.81449    54375.829   -9620.1725     2181.738   -7438.4345    101.04385 
  125700    301.80665   -92.453449    54120.904   -9748.8924     2282.357   -7466.5355    87.583391 
  125800     296.8751    437.22715    53720.133   -9684.6111     2245.063    -7439.548    330.00626 
  125900    301.12271    192.12227    53602.276   -9683.3428    2277.1848    -7406.158   -234.56102 
  126000    298.59866    190.90108    53616.225   -9697.6434    2258.0972   -7439.5462    227.38137 
  126100      291.638     36.77867    53692.245   -9681.5432    2205.4585   -7476.0848    111.08792 
  126200    298.03151   -62.338812    53610.135   -9687.6599    2253.8082   -7433.8517   -165.72238 
  126300    304.68244   -11.418504    53389.117   -9651.3303    2304.1046   -7347.2257    217.12414 
  126400    307.76495    148.95703     53311.83   -9709.7764    2327.4156   -7382.3608   -358.37481 
  126500    296.62773   -342.92649    53430.187   -9646.9098    2243.1924   -7403.7174    74.141338 
  126600    299.35361    478.97584    53391.445   -9704.9382    2263.8063   -7441.1319    107.42107 
  126700    292.94956    184.07509    53556.461   -9654.5116    2215.3769   -7439.1347   -36.485234 
  126800    300.20148     135.9936    53652.101   -9735.9858    2270.2182   -7465.7676    357.67662 
  126900    293.94967   -317.97044    53849.653   -9762.1309      2222.94   -7539.1909    56.237917 
  127000    290.07227   -393.42885    53868.874   -9722.9319    2193.6179    -7529.314    62.046075 
  127100    302.40363     59.25266    53769.433   -9725.1784    2286.8715   -7438.3069   -28.325913 
  127200    301.87381     41.27896    53773.443   -9730.1951    2282.8649   -7447.3302    277.27282 
  127300    296.39526   -131.98144    53973.912   -9707.8165    2241.4343   -7466.3822    128.82594 
  127400    289.84031   -522.17954    54208.743   -9753.7875    2191.8637   -7561.9238    172.05053 
  127500    289.98812   -306.94873    54364.731   -9744.8039    2192.9816   -7551.8224   -70.316356 
  127600    293.62958   -153.03194    54413.133   -9718.1609    2220.5194   -7497.6415    322.57204 
  127700    295.85203    67.376363    54426.656   -9692.8092    2237.3263   -7455.4829    39.247672 
  127800    298.43453   -39.751437    54231.954   -9690.8584    2256.8559   -7434.0025   -150.08276 
  127900    301.02098    277.55573    53926.694   -9737.2709    2276.4155   -7460.8554   -27.986065 
  128000     292.3804    118.51245    53806.602   -9763.4464    2211.0727   -7552.3737   -38.383777 
  128100    295.99334   -376.83084    53749.677   -9829.5178    2238.3949   -7591.1229     16.91711 
  128200    299.34299   -351.83447    53716.222   -9829.2908     2263.726   -7565.5648    255.33523 
  128300    294.57294    99.661094      53795.9   -9698.2375    2227.6534   -7470.5841     8.123417 
  128400     293.2802    346.19465    53994.378   -9658.5404    2217.8773   -7440.6632    112.64295 
  128500    309.67823   -258.24839    54321.404   -9772.6453    2341.8843    -7430.761    272.37708 
  128600    292.54577   -561.90693    54664.905     -9703.38    2212.3233   -7491.0567    51.791892 
  128700    300.62377   -667.56411    54755.714   -9786.6973    2273.4116   -7513.2856   -103.90817 
  128800    290.80824   -292.37253    54662.171   -9768.9223    2199.1836   -7569.7387    2.2965878 
  128900    291.22418   -404.79247    54489.164   -9799.3036     2202.329   -7596.9746   -123.38339 
  129000    304.48347    163.49149    54178.358   -9843.3866       2302.6   -7540.7867    246.45363 
  129100    304.68381    221.54242     54074.25   -9824.4552     2304.115   -7520.3402    420.46318 
  129200    288.35118   -69.249511    54181.485   -9740.6728    2180.6025   -7560.0703    104.81308 
  129300    300.81777   0.68258389    54257.317    -9750.139    2274.8788   -7475.2602   -52.745808 
  129400    306.80644   -159.71682    54207.462   -9727.1384     2320.167   -7406.9715    250.44466 
  129500     298.7113   -80.150271    54190.569   -9709.1831     2258.949   -7450.2341   -172.18423 
  129600    300.68278    85.915773    54027.641   -9770.2562    2273.8579   -7496.3983    129.68028 
  129700    295.62409    -90.65963    53719.665   -9729.8797    2235.6025   -7494.2772    58.269296 
  129800    299.23104   -911.05548    53436.762   -9755.7191    2262.8794   -7492.8398   -150.55369 
  129900    309.28669    236.82824    53137.167   -9834.1444    2338.9234    -7495.221    -17.89529 
  130000    295.98796   -312.15303    53210.679   -9826.8231    2238.3542   -7588.4689   -194.32804 
  130100    299.12176    -744.8128    53275.371   -9884.7795     2262.053   -7622.7265    76.050834 
  130200    293.88838   -389.87294     53265.25   -9785.8859    2222.4765   -7563.4094   -62.185346 
  130300    299.10434   -259.51678    53233.457   -9749.7636    2261.9213   -7487.8423    30.808443 
  130400    301.64863    312.65254    53291.264   -9747.1686     2281.162   -7466.0066    81.142233 
  130500    295.28477   -413.58551    53561.193   -9755.9912    2233.0365   -7522.9547    64.082598 
  130600    296.70304   -421.34951    53825.287    -9771.471    2243.7619   -7527.7091    80.230486 
  130700    293.71544   -227.86199    53903.611   -9815.2843    2221.1687   -7594.1156   -120.66781 
  130800    288.62071    185.93907    53721.398   -9844.0452    2182.6408   -7661.4044    212.45677 
  130900    298.55424    136.63686    53517.963   -9866.0757    2257.7612   -7608.3145   -186.22466 
  131000    293.14853    351.08174     53337.02   -9753.6059    2216.8815   -7536.7243    349.12225 
  131100    299.16067    -179.1786    53540.478   -9776.5962    2262.3472    -7514.249   -126.96298 
  131200    295.15957   -744.90362    53883.485   -9712.6987    2232.0897    -7480.609   -74.476134 
  131300    294.29049   -387.64431    54024.251   -9664.8564    2225.5174    -7439.339   -31.081353 
  131400    295.58755   -421.79391    54070.416   -9656.2771    2235.3262   -7420.9508    148.49369 
  131500     295.6536   -697.98945     54053.21   -9685.9951    2235.8257   -7450.1694    57.497982 
  131600     298.3809   -3.5850473    53813.675   -9687.6978    2256.4504   -7431.2474    239.73904 
  131700      298.795    -12.05583     53558.63   -9724.1334    2259.5819   -7464.5515   -168.75419 
  131800    294.55492   -225.67238    53549.728   -9779.1894    2227.5171   -7551.6723    240.96584 
  131900     292.1469    93.352984    53628.308   -9781.7627    2209.3069   -7572.4558    -224.8782 
  132000    295.20752    32.493156     53545.06     -9775.73    2232.4523   -7543.2777    228.98721 
  132100    303.55912    246.06892    53367.187   -9799.2803    2295.6097   -7503.6706    274.92054 
  132200    298.88024   -256.69841    53373.459   -9792.8792    2260.2265   -7532.6527    284.27873 
  132300    294.65573    246.65845    53439.112   -9759.2921    2228.2795   -7531.0126   -35.113963 
  132400    296.52125   -169.03808    53708.297   -9783.4067    2242.3871   -7541.0196    480.59712 
  132500    307.96588    -222.2689    54069.146   -9753.6419     2328.935   -7424.7069   -106.71859 
  132600    305.07326   -318.81369    54373.221   -9705.2009    2307.0601   -7398.1408    9.0596139 
  132700    296.37436    -243.4455    54504.918   -9683.1389    2241.2763   -7441.8627    46.767997 
  132800    298.63194    287.05392    54455.069   -9719.0799    2258.3488   -7460.7311   -57.948561 
  132900    291.77125   -438.47862    54476.273    -9721.247    2206.4661   -7514.7808   -100.80639 
  133000    285.27178   -341.23749    54546.316   -9727.9258    2157.3151   -7570.6107    26.502385 
  133100    291.59432   -123.46953    54652.707   -9736.2265    2205.1281   -7531.0984   -29.283025 
  133200    303.03444    67.000486    54787.147   -9725.1625     2291.642   -7433.5205    61.183883 
  133300     301.8612   -415.43746    54977.812   -9722.4862    2282.7695   -7439.7166    27.058454 
  133400    301.99844   -159.17119    54906.162   -9695.7375    2283.8074   -7411.9301    164.18858 
  133500      301.917    717.56315    54660.542   -9663.6936    2283.1915    -7380.502    11.212928 
  133600    295.67933   -79.095589    54527.565   -9630.4617    2236.0203   -7394.4414     107.8916 
  133700    296.13139   -471.82945    54189.059    -9705.579    2239.4389   -7466.1401   -33.878259 
  133800    295.58613   -180.14373    53616.122   -9757.7416    2235.3155   -7522.4261    106.24294 
  133900    291.26932   -219.64187    53364.843    -9787.941    2202.6704   -7585.2706   -79.108409 
  134000    295.85325   -287.13096    53389.064   -9812.3853    2237.3355   -7575.0498   -41.514359 
  134100    295.27472    226.01713    53505.851   -9781.6883    2232.9605   -7548.7278   -33.745321 
  134200    305.71567   -70.721944    53641.284   -9746.8411    2311.9182   -7434.9229   -43.045665 
  134300    299.98895    277.38455    53774.752   -9701.8626     2268.611   -7433.2517    156.59417 
  134400     300.5182    111.17624    53838.643   -9727.1888    2272.6133   -7454.5755    46.315659 
  134500    298.88024    619.82373    53948.093   -9756.2302    2260.2266   -7496.0036     45.31919 
  134600    301.49109    696.03741    54115.518   -9833.5616    2279.9706    -7553.591    55.620473 
  134700    295.50221    214.91012     54169.08   -9851.6789    2234.6809    -7616.998    273.77349 
  134800    283.60663    10.120835    54127.964   -9866.1922    2144.7227   -7721.4695    276.40549 
  134900    290.55501   -606.31794    54019.018   -9910.2871    2197.2685   -7713.0185    52.164451 
  135000    297.46991    360.81649    53810.018   -9903.8098    2249.5612   -7654.2486   -32.335241 
  135100     295.2073   -20.257028    53727.179   -9783.1831    2232.4506   -7550.7325    287.18152 
  135200    302.50181   -262.89965    53754.785   -9800.3371     2287.614   -7512.7231    41.874645 
  135300    292.02433   -838.42654    53860.804   -9712.0636      2208.38   -7503.6836    114.58726 
  135400    300.27468   -493.12984    53870.947   -9746.2919    2270.7718   -7475.5201    -17.73193 
  135500    301.79964   -641.61057    53918.125   -9765.9575     2282.304   -7483.6535    112.43452 
  135600    294.09133    -859.9273    54086.901   -9797.2179    2224.0113   -7573.2066   -7.8272278 
  135700    295.72043   -329.31132    54124.061   -9830.7962    2236.3311   -7594.4651    277.54498 
  135800    295.83113   -42.512894    54348.331   -9801.0492    2237.1683   -7563.8809    295.53636 
  135900    305.10287   -30.934643    54628.872   -9759.8469    2307.2841   -7452.5628    74.342419 
  136000    296.78876    75.626815    54780.395   -9695.9924    2244.4101   -7451.5822    100.94572 
  136100    302.44217   -95.620353    54992.198   -9761.0793     2287.163   -7473.9164   -95.368454 
  136200    295.78864   0.18036307    55198.119    -9715.319    2236.8469   -7478.4721    19.586585 
  136300    298.35007   -223.31836    55402.175   -9685.9947    2256.2172   -7429.7774    193.73555 
  136400    296.19215   -189.63443    55563.697   -9616.9214    2239.8984    -7377.023    358.66723 
  136500    300.90732   -285.72427    55700.351   -9648.8939    2275.5559    -7373.338    110.28512 
  136600    296.52402    123.15435    55512.664   -9700.8424    2242.4081   -7458.4343    165.64102 
  136700    294.06408    269.74769    55195.154   -9724.5139    2223.8052   -7500.7086    417.48597 
  136800    296.84191   -199.20871    54899.087   -9742.0973    2244.8121   -7497.2852    131.26971 
  136900    299.41326   -72.798104    54572.506   -9738.8428    2264.2574   -7474.5854    7.7093215 
  137000    299.01017   -109.86199      54321.1   -9683.6916    2261.2091   -7422.4825    66.294814 
  137100    309.53612   -1000.9423    54087.038   -9742.2648    2340.8097   -7401.4551   -92.834198 
  137200    304.14057   -497.21663     53858.66   -9685.7104    2300.0068   -7385.7035    2.3582308 
  137300    307.16684   -361.51253    53766.777   -9784.2782    2322.8924   -7461.3858    276.94384 
  137400     296.5848   -366.45347    53781.299   -9769.8033    2242.8677   -7526.9356    166.43136 
  137500    296.61746   -421.46352    53785.956   -9805.4788    2243.1147    -7562.364   -53.295147 
  137600    295.03601    123.87104    53739.394   -9813.8586    2231.1553   -7582.7033    60.806991 
  137700    298.62615   -270.94182    53901.224   -9837.5884     2258.305   -7579.2834    196.06968 
  137800    290.84772   -368.29521    54032.328    -9710.136    2199.4821   -7510.6539   -127.09145 
  137900    297.97971    267.59551    53883.297   -9694.8997    2253.4165   -7441.4832    368.41788 
  138000     300.9527   -937.47964    53859.094   -9711.5508    2275.8991   -7435.6517    41.469388 
  138100    300.82222    303.93039    53650.522    -9734.648    2274.9124   -7459.7356    138.76298 
  138200    293.77571    309.06896    53480.318   -9793.1871    2221.6245   -7571.5627    127.82285 
  138300     293.1994     202.9568    53493.715   -9795.6441    2217.2662   -7578.3779    89.054301 
  138400    300.83222   -2.4904789    53586.474   -9798.6576    2274.9881   -7523.6696    98.559084 
  138500    298.56979    230.24428    53690.861   -9734.8298    2257.8788   -7476.9509   -181.67793 
  138600    293.62693   -56.328287    53757.326   -9694.2773    2220.4994   -7473.7779   -299.14807 
  138700    298.50792   -782.09254    53753.793   -9730.4434     2257.411   -7473.0324   -4.4612564 
  138800    295.48562   -564.56223    53712.062   -9720.6165    2234.5553   -7486.0611     -253.253 
  138900    296.03128   -223.62522     53703.44   -9797.7305    2238.6818   -7559.0487    171.65559 
  139000    294.42867    3.4272275    53599.034   -9820.5549    2226.5624   -7593.9924   -181.65287 
  139100    306.91959   -241.11664    53439.106   -9838.5719    2321.0227   -7517.5492   -12.474422 
  139200    302.03418    95.674176     53300.43   -9774.2299    2284.0776   -7490.1523   -105.37916 
  139300    290.74789    112.64473    53162.315    -9693.141    2198.7272   -7494.4138    306.52938 
  139400    300.42287    101.75602    53197.438   -9779.9197    2271.8924   -7508.0273     282.9783 
  139500    295.63609    -485.7627    53287.941   -9800.1064    2235.6933   -7564.4132    69.581676 
  139600    294.58782     21.66235    53437.392   -9874.8625     2227.766   -7647.0965   -1.6177474 
  139700    294.92947    350.46513    53695.059   -9862.1046    2230.3495   -7631.7551   -110.41992 
  139800    295.26093   -249.13105    54008.534   -9790.0325    2232.8562   -7557.1763    204.45855 
  139900    296.56892   -290.75398    54150.093   -9749.8532    2242.7476   -7507.1056    70.745564 
  140000    295.07196    577.10993    54067.467   -9742.1617    2231.4272   -7510.7346   -29.125598 
  140100    301.10277     421.7893     53961.85   -9754.6448     2277.034   -7477.6108    207.56986 
  140200    294.65496    162.10299     53818.15   -9738.3635    2228.2737   -7510.0898   -89.763469 
  140300    293.27309   -501.33018    53662.237   -9837.0976    2217.8235   -7619.2741    171.62911 
  140400    291.59547    8.6376645    53484.807   -9794.5775    2205.1368   -7589.4406   -182.36998 
  140500    304.12496    100.35177    53405.355   -9838.6013    2299.8888   -7538.7125   -54.610943 
  140600    297.50171   -558.41996     53371.28   -9763.1308    2249.8017   -7513.3291    68.178366 
  140700    299.43035   -124.17526    53338.848   -9709.7137    2264.3867    -7445.327   -44.597294 
  140800    308.19378    92.141088     53648.08   -9709.9605    2330.6584   -7379.3021   -33.438192 
  140900    300.45201   -212.79945    54167.665   -9614.3939    2272.1128   -7342.2812   -24.806167 
  141000    300.76956   -471.35932    54319.552    -9685.794    2274.5142   -7411.2798    128.06499 
  141100    293.00549   -297.35058    54245.869   -9699.8664    2215.7999   -7484.0665    -112.3444 
  141200    293.53628    156.33814     54146.07   -9730.0426    2219.8139   -7510.2287   -203.42752 
  141300    299.41041    503.47471    54175.655   -9698.3204    2264.2359   -7434.0845    181.55953 
  141400    298.74645    -582.4643    54422.155   -9684.3712    2259.2148   -7425.1564   -4.3515536 
  141500    303.31443    -224.2985    54468.367   -9745.6815    2293.7593   -7451.9222   -24.188278 
  141600     295.5809     507.2131    54291.144   -9805.2789    2235.2759    -7570.003    14.867637 
  141700    290.85663    71.613747    54231.725   -9789.8598    2199.5495   -7590.3103   -71.367301 
  141800     296.6693   -627.46576    54205.926   -9788.4763    2243.5067   -7544.9696    130.93789 
  141900     297.6847    47.465563    54097.909   -9737.3176    2251.1855   -7486.1321    166.92481 
  142000    295.52593    238.10721    54102.991   -9704.0793    2234.8602   -7469.2191    273.21205 
  142100    302.55557   -194.66138    54286.043   -9782.8902    2288.0206   -7494.8696    232.69593 
  142200    299.09222   -621.83428    54412.127   -9773.5142    2261.8296   -7511.6846    138.29343 
  142300    303.10082   -314.90273    54462.587   -9734.6806    2292.1439   -7442.5367   -151.71862 
  142400    308.08516     126.4443    54297.486   -9680.6902    2329.8371   -7350.8531    2.0679244 
  142500    300.93465     -267.995    54212.637   -9683.9048    2275.7626   -7408.1422    93.832142 
  142600    303.04591   -452.14156     54093.24   -9775.6477    2291.7287    -7483.919    65.662058 
  142700      294.923   -224.59204    53993.759    -9739.802    2230.3006   -7509.5013   -151.66569 
  142800    301.11903   -329.58579    53814.572   -9789.9699     2277.157   -7512.8129    52.638303 
  142900    293.63043   -19.000618     53625.26   -9730.9722    2220.5258   -7510.4464    263.70097 
  143000    301.63895   -712.72354    53599.792   -9744.3085    2281.0888   -7463.2197   -32.495879 
  143100    299.96441   -575.32318    53590.631   -9692.0367    2268.4254   -7423.6113   -1.6626016 
  143200    308.64104    237.76955    53380.098   -9742.8229    2334.0408   -7408.7821   -185.13093 
  143300    300.18745    52.019384    53204.473    -9776.056    2270.1121   -7505.9439   -40.672208 
  143400    292.30643    623.27896    53155.206    -9753.755    2210.5133   -7543.2417    91.223226 
  143500    297.49392    218.94462    53225.565    -9782.864    2249.7428   -7533.1212    101.41459 
  143600    295.68683    942.16271    53294.801   -9721.8014    2236.0769   -7485.7245    110.92429 
  143700    302.94096      37.5079    53809.312   -9696.8101     2290.935   -7405.8751    220.06876 
  143800    293.70876   -70.749611    54328.769   -9620.4406    2221.1182   -7399.3225   -15.872359 
  143900    294.69997   -287.17292    54806.423   -9615.8796     2228.614   -7387.2656    18.554442 
  144000    290.91143   -770.24902    54951.674   -9700.8697    2199.9639   -7500.9058   -46.083049 
  144100    297.62708   -648.98357    54862.504   -9778.2908    2250.7498    -7527.541   -118.98961 
  144200     296.5998   -673.81737    54676.915   -9736.4834    2242.9811   -7493.5022  -0.29842615 
  144300    299.16064   -311.12547    54397.759   -9715.1022     2262.347   -7452.7552   -6.7171188 
  144400    308.07172   -15.306407    54396.524   -9725.3771    2329.7354   -7395.6417   -145.49086 
  144500    300.19374    46.589884      54545.6   -9625.5942    2270.1597   -7355.4345    75.021143 
  144600    293.10834   -195.62278     54680.97   -9631.9994    2216.5776   -7415.4218   -273.88488 
  144700    291.18581   -437.57543    54579.508   -9679.9463    2202.0389   -7477.9075   -118.19523 
  144800    298.09564    162.41055    54262.662   -9724.0782    2254.2931   -7469.7851   -94.795741 
  144900    300.68707    65.373419    54056.218   -9714.4213    2273.8904   -7440.5309   -42.975257 
  145000    301.28235    108.62652    53952.143   -9671.5155     2278.392   -7393.1234    354.47235 
  145100    305.78482    241.15578    54036.215   -9717.0763    2312.4411   -7404.6352    406.10304 
  145200    298.79832   -58.076493    54089.552   -9726.6891    2259.6071    -7467.082    359.16533 
  145300    293.80073   -403.84331     54124.55   -9740.9294    2221.8137   -7519.1157    119.80719 
  145400    295.91338    -693.2109     54304.29   -9772.4661    2237.7902   -7534.6758   -89.092903 
  145500    300.27948    43.389562    54510.697   -9743.9934     2270.808   -7473.1854   -127.53432 
  145600    306.48715   -697.16068    54880.573    -9708.449    2317.7524   -7390.6966    174.73188 
  145700    290.59206   -393.38518    55095.005   -9581.7552    2197.5487   -7384.2064    23.857258 
  145800    308.90098    -552.8841    55118.172   -9686.3167    2336.0066   -7350.3101    140.46221 
  145900      292.327   -194.84138    55075.817   -9620.2626    2210.6689   -7409.5937    25.313608 
  146000    297.39847    108.85508    54901.347   -9751.8062     2249.021   -7502.7853    140.24667 
  146100     296.7177    260.00708    54707.906   -9765.3128    2243.8727   -7521.4401   -52.147072 
  146200     293.5791    117.86399    54400.436   -9727.9119    2220.1376   -7507.7743    145.58937 
  146300    300.32473   -686.38213     54247.31   -9741.3451    2271.1502   -7470.1949   -122.16248 
  146400    304.35779    -42.73602    53984.227   -9768.7695    2301.6495     -7467.12    7.9634526 
  146500    304.32433    583.47433    53891.014   -9827.0159    2301.3965   -7525.6194    21.414744 
  146600    294.32286    -666.6457    53974.271   -9827.0253    2225.7622   -7601.2631    6.9457716 
  146700    292.40193   -600.59811    53885.416   -9792.1019    2211.2355   -7580.8663   -19.735895 
  146800    298.37665    48.845858    53674.317   -9772.7259    2256.4182   -7516.3077    128.12316 
  146900    299.53039    126.85369     53417.52   -9775.3895    2265.1432   -7510.2463    70.122615 
  147000    302.47755      372.499    53374.619   -9809.8883    2287.4305   -7522.4577    242.38678 
  147100    296.64952    198.10508    53399.586   -9790.9659    2243.3571   -7547.6088   -138.23237 
  147200    293.05101   -451.52284    53236.688   -9825.4266    2216.1441   -7609.2825    48.452056 
  147300    288.99893   -49.542129    52830.207   -9795.7165     2185.501   -7610.2155   -305.46332 
  147400    304.28508    1026.4589    52464.305   -9832.9917    2301.0997   -7531.8921   -12.544158 
  147500    296.85573    593.89008    52573.221   -9743.8965    2244.9166   -7498.9799   -81.028527 
  147600    295.28499    143.32964    52862.193   -9752.3093    2233.0381   -7519.2712   -247.49068 
  147700    298.24252     273.1338    53289.817   -9857.3968    2255.4039   -7601.9929    73.380804 
  147800     291.1391   -214.29186    53555.178   -9859.0509    2201.6856   -7657.3653   -196.67175 
  147900    297.18271   -308.33137    53561.055   -9843.6625    2247.3893   -7596.2732    283.26584 
  148000    301.86643   -465.34092    53486.428   -9840.0084    2282.8091   -7557.1993   -162.90573 
  148100    297.60185   -104.11258    53308.197   -9783.8956     2250.559   -7533.3367    71.932032 
  148200    295.08572    -174.1466    53343.302   -9748.5152    2231.5312    -7516.984   -177.39329 
  148300    296.10664   -293.62692    53478.654   -9790.2948    2239.2517   -7551.0431   -2.9573189 
  148400    284.25309   -257.15566    53713.847   -9780.9283    2149.6114   -7631.3169    219.56359 
  148500    287.44279   -631.39941    53925.973   -9761.3026    2173.7329   -7587.5697   -53.229424 
  148600    295.82391    216.05613    53761.469   -9789.9875    2237.1136   -7552.8739     228.6332 
  148700    304.23681     79.78998    53630.416   -9805.6632    2300.7346   -7504.9286   -75.146934 
  148800    300.06791     160.3721    53531.641   -9759.5721    2269.2081    -7490.364   -72.522823 
  148900     295.1362     700.0688    53326.635    -9753.998    2231.9129   -7522.0851   -58.645253 
  149000    297.58766    -76.52627    53294.177   -9823.2544    2250.4516   -7572.8028    103.24861 
  149100    292.88927   -549.85824    53327.321   -9848.9264     2214.921   -7634.0055    49.729698 
  149200    297.29508    176.26204    53234.179   -9871.3462     2248.239   -7623.1071    107.49936 
  149300    293.96335    241.68042    53343.869   -9791.4476    2223.0435   -7568.4041    5.5519446 
  149400    294.30078    -61.65615    53608.704   -9767.0897    2225.5952   -7541.4944    156.77899 
  149500    293.08039   -90.237976    54087.843   -9732.2371    2216.3663   -7515.8708   -76.999917 
  149600    302.45104    -215.6384    54472.014   -9737.9532      2287.23   -7450.7231    60.557195 
  149700    299.90014    -1.781156    54523.076   -9678.8837    2267.9394   -7410.9443    45.601292 
  149800    297.98282   -355.72347     54351.25   -9669.6151      2253.44   -7416.1751   -98.230963 
  149900    299.25446   -562.94943    54058.472   -9711.6236    2263.0565    -7448.567    135.49699 
  150000    300.80384   -375.28651     53904.61   -9815.5989    2274.7734   -7540.8255    246.30013 
  150100     293.1249    39.468085    53903.263   -9771.8619    2216.7029    -7555.159   -186.44368 
  150200    300.25685   -253.83902    53941.238   -9755.6856    2270.6369   -7485.0488    12.113509 
  150300    299.03877    119.41837    53865.396   -9696.8888    2261.4254   -7435.4634    96.497474 
  150400     299.0116    518.58646    53682.646   -9709.7683    2261.2199   -7448.5484    112.55347 
  150500    297.46981    70.282232    53588.249   -9755.6178    2249.5605   -7506.0573    81.535511 
  150600    289.97207   -171.45277    53570.088   -9783.5121    2192.8602    -7590.652   -124.52529 
  150700    289.28689   -111.99612    53606.008   -9838.3353    2187.6786   -7650.6567    -107.2177 
  150800    290.96143   -16.230547    53555.528   -9880.1626     2200.342   -7679.8206     71.33658 
  150900     298.8691    330.87476     53531.68   -9837.4414    2260.1423   -7577.2991    283.75501 
  151000    297.07103    260.48856    53719.951   -9761.5034    2246.5448   -7514.9586   -161.00124 
  151100    301.31666     79.12218     53920.08   -9706.7478    2278.6515   -7428.0963   -101.31505 
  151200    304.81141    744.90912    53970.582   -9698.6377    2305.0799   -7393.5578   -197.97216 
  151300    300.88668    219.49729    54042.571   -9694.7076    2275.3999   -7419.3077   -132.17814 
  151400    293.70583   -293.38878    54085.675    -9723.664     2221.096    -7502.568    26.033301 
  151500    299.74824     167.4197    53955.563   -9783.6193    2266.7906   -7516.8286    32.740123 
  151600     299.6852   -497.15158    53721.105   -9742.1463    2266.3139   -7475.8324     182.6692 
  151700    302.07165    195.07165    53495.837   -9729.3952     2284.361   -7445.0342     52.33844 
  151800    304.89536    436.28575    53558.302   -9717.6415    2305.7148   -7411.9267    423.37213 
  151900    301.55611   -419.40896     53996.07   -9728.2829    2280.4624   -7447.8205   -468.23548 
  152000    298.29191   -639.30146    54258.665   -9774.6138    2255.7774   -7518.8364   -101.70041 
  152100    291.65073    402.25874    54393.578   -9743.4927    2205.5547    -7537.938   -240.40371 
  152200    297.06239      66.3072    54409.002   -9728.9756    2246.4794   -7482.4962   -385.87066 
  152300    301.86206   -61.589787    54236.373   -9723.3027     2282.776   -7440.5266    64.532482 
  152400    295.54623    400.80575    53962.185   -9795.7448    2235.0137    -7560.731    -109.6821 
  152500    293.78724    507.47754    53804.783   -9814.4231    2221.7117   -7592.7114    270.57353 
  152600    297.94031    309.08507    53643.973   -9823.8948    2253.1185   -7570.7764    193.29086 
  152700    298.82004    652.09259    53492.851   -9760.2455    2259.7713   -7500.4742    272.26565 
  152800    302.63008   -147.60697    53556.242   -9761.0929    2288.5841   -7472.5088   -19.916178 
  152900    297.33629   -206.90577    53788.711   -9704.8121    2248.5507   -7456.2614   -264.20486 
  153000    297.81513     -858.092    54060.583   -9788.8826    2252.1718   -7536.7108    15.544009 
  153100    296.66253   -159.53498     54042.75     -9835.06    2243.4555   -7591.6045   -91.619096 
  153200    295.37738   -544.90822    54101.304   -9803.8715    2233.7368   -7570.1347    236.93946 
  153300    297.14482   -38.976359    54265.701   -9751.4221    2247.1028   -7504.3193    58.389161 
  153400    296.84555   -176.51079    54677.314   -9692.6988    2244.8396   -7447.8592    16.298752 
  153500    300.73321   -715.05409     55042.55   -9729.5674    2274.2393   -7455.3281   -56.446433 
  153600    295.62036   -397.20372    55113.086   -9664.5011    2235.5743   -7428.9268   -179.20041 
  153700     299.7737   -339.98804     54988.88   -9689.5772    2266.9831    -7422.594    247.01052 
  153800    297.77573    485.87115    54797.367   -9623.5932    2251.8739   -7371.7193   -83.329312 
  153900    305.26577    91.812385    54795.765   -9594.7465    2308.5159   -7286.2305    305.40488 
  154000    303.96265    36.166443    54821.539   -9595.4988    2298.6613   -7296.8375    330.89147 
  154100    298.71574   -691.20204    54987.489   -9640.9336    2258.9826   -7381.9511    -41.50019 
  154200    296.90968   -383.55093    54942.472   -9656.3882    2245.3245   -7411.0637   -71.599963 
  154300    304.23441   -504.79933    54854.097   -9733.5969    2300.7164   -7432.8805     27.18933 
  154400    302.10523   -49.566716    54873.245    -9727.447    2284.6149   -7442.8321    299.46412 
  154500    289.73871   -256.88875    54991.809   -9705.7189    2191.0954   -7514.6235    15.790323 
  154600    293.37384    -927.5637    54803.755   -9749.7042    2218.5854   -7531.1188    253.48172 
  154700    304.82914   -343.99086    54400.678   -9755.2503     2305.214   -7450.0363   -195.79227 
  154800     305.9291   -114.93916    54113.468   -9754.0112    2313.5322   -7440.4789    15.076905 
  154900    294.84105   -439.55165    54187.262   -9700.2886     2229.681   -7470.6076   -79.836176 
  155000    299.21759   -718.69949    54384.876   -9737.7742    2262.7777   -7474.9965    1.2224626 
  155100    295.47114   -6.1429903    54478.392   -9726.8505    2234.4459   -7492.4046   -119.58033 
  155200     294.7498    265.97247    54535.704    -9743.754    2228.9908   -7514.7631    36.372476 
  155300    292.78928     741.7032    54479.447   -9760.4598    2214.1648    -7546.295    -27.84614 
  155400    291.17817    204.83785    54371.768   -9761.4404    2201.9811   -7559.4593    251.87429 
  155500    302.47388    168.38564    54268.556   -9753.7522    2287.4028   -7466.3494    -147.8687 
  155600    302.51513    139.98845    54276.855   -9718.9411    2287.7148   -7431.2263   -11.934017 
  155700    303.85397    349.77334    54213.248   -9754.7735    2297.8395    -7456.934    41.536835 
  155800    299.12213   -64.507763    54160.077   -9793.4408    2262.0558    -7531.385    218.26797 
  155900     301.7433   -44.780636    54243.622    -9836.753    2281.8779    -7554.875    164.44265 
  156000    300.53744   -310.59904    54472.182   -9823.0042    2272.7588   -7550.2454   -86.612774 
  156100    295.46659    67.982668    54557.504   -9723.5819    2234.4114   -7489.1704   -84.954131 
  156200    296.60437    537.27461    54495.978   -9710.1119    2243.0157   -7467.0962   -287.60377 
  156300    302.96288   -308.46317    54577.788   -9762.8182    2291.1008   -7471.7174    17.324474 
  156400    298.56381    512.27535    54605.676    -9749.088    2257.8336   -7491.2544    -14.29623 
  156500    289.21715    -5.622319     54596.11     -9735.69    2187.1512   -7548.5388   -191.67929 
  156600    298.45448     61.94318    54487.147   -9749.4436    2257.0068   -7492.4367    10.045412 
  156700    304.26613    187.09039    54324.164   -9723.4804    2300.9564    -7422.524    70.607693 
  156800    303.51817     185.5053    54219.248    -9688.459       2295.3   -7393.1589     115.8528 
  156900    296.95117    153.64105    54124.523   -9684.8922    2245.6383   -7439.2539    16.191903 
  157000    296.28475   -16.947209    54088.437   -9753.4169    2240.5986   -7512.8182   -281.09715 
  157100    298.24006    250.86903    53824.575   -9798.1488    2255.3853   -7542.7635   -267.38017 
  157200    302.01808   -169.29232    53688.213   -9830.1359    2283.9559     -7546.18   -49.560302 
  157300    291.37733   -215.60336    53724.628   -9753.7645    2203.4872   -7550.2773    49.827153 
  157400    298.88443   -140.40412    53828.484   -9797.7363    2260.2582   -7537.4781    137.17645 
  157500    295.43704   -49.583554    54062.005   -9745.6258     2234.188   -7511.4378    -247.8808 
  157600    300.21314   -145.13599    54360.646    -9702.784    2270.3064   -7432.4777   -225.00328 
  157700     295.4155     27.86872    54486.841   -9658.8635    2234.0251   -7424.8384   -186.69999 
  157800    300.78018   -75.830968    54499.283   -9737.2695    2274.5945   -7462.6749    61.201312 
  157900     293.3979   -9.1255697    54467.828   -9768.7705    2218.7673   -7550.0031     162.5783 
  158000    296.87555   -373.16115    54405.753   -9820.1939    2245.0664   -7575.1275   -38.044897 
  158100    298.88159   -194.69746    54232.722   -9786.0357    2260.2367    -7525.799    166.32808 
  158200    290.31645    593.79013    54138.919    -9680.691    2195.4645   -7485.2265   -113.66517 
  158300    301.39112   -337.27106     54241.32   -9743.1553    2279.2146   -7463.9407    79.950392 
  158400     308.3022   -397.22073    54242.108   -9779.1471    2331.4784   -7447.6687    121.88223 
  158500    300.08614   -475.00438    54157.193   -9785.6966    2269.3459   -7516.3507    -103.1727 
  158600    302.84508   -279.10339    54075.171   -9817.6611    2290.2099   -7527.4512    32.418668 
  158700     299.9097    -254.0229    53985.271   -9785.6227    2268.0117    -7517.611    99.461887 
  158800    296.85266   -159.29391    53952.862   -9723.3028    2244.8934   -7478.4094    111.20854 
  158900    301.38095   -503.68471     54042.49   -9741.4136    2279.1377   -7462.2759    57.311527 
  159000    293.97203   -156.84291    54041.323   -9670.3226    2223.1091   -7447.2135    132.64926 
  159100    299.49855    2.4302173    54076.403   -9693.1316    2264.9024   -7428.2292     -78.3859 
  159200     297.1197   -357.09428     54126.51   -9673.0427    2246.9128   -7426.1299    30.012808 
  159300    294.03273    46.728361    54062.143   -9649.9252    2223.5682   -7426.3571    163.93001 
  159400    301.76953    237.89072    53925.046    -9739.634    2282.0763   -7457.5578    144.67882 
  159500     295.2279    385.01232    53957.984   -9756.5193    2232.6064    -7523.913    277.40446 
  159600    284.49667     193.0271    53971.466   -9704.9499    2151.4535   -7553.4965   -242.37955 
  159700    301.03355   -164.86764    53969.449   -9751.7017    2276.5105   -7475.1912    70.058162 
  159800     297.8729    56.954596    54148.084   -9705.6615    2252.6087   -7453.0527   -159.96413 
  159900    301.08802    125.66592    54329.109   -9744.9903    2276.9225   -7468.0677   -70.919985 
  160000    294.13896   -373.19546    54560.702   -9725.6904    2224.3715   -7501.3189    640.02722 
  160100    290.84911   -662.57623     54707.51   -9747.1171    2199.4926   -7547.6245    272.49634 
  160200    296.61948   -668.92182    54694.992   -9738.9238      2243.13   -7495.7939     148.0748 
  160300    299.17996    -261.6912    54647.406   -9688.7826    2262.4932   -7426.2894    49.217827 
  160400    304.76102    11.738169    54725.619   -9714.5828    2304.6988    -7409.884   -22.767335 
  160500    306.32631    -732.9757    54993.143   -9763.0959    2316.5361   -7446.5599    267.23883 
  160600    284.75454   -481.83115    55294.424   -9680.6567    2153.4035   -7527.2531   -1.8919288 
  160700    292.03293   -650.45818    55317.314   -9726.8901     2208.445   -7518.4451    13.623046 
  160800    303.45495    -1.697102    55116.416   -9750.4575     2294.822   -7455.6356    47.206956 
  160900    296.23464   -567.97099    54874.152   -9664.2593    2240.2197   -7424.0397   -273.92644 
  161000    297.53766   -665.62723    54536.529   -9678.0338    2250.0735   -7427.9603    191.17011 
  161100    298.66771 -0.020790729    54168.129   -9669.5362    2258.6193   -7410.9169     231.6497 
  161200     299.4905   -231.34876    54158.237   -9739.9077    2264.8415   -7475.0662     395.9092 
  161300    289.23535   -715.46135    54278.623   -9726.9705    2187.2888   -7539.6817    128.10861 
  161400    291.87598   -229.70363    54148.405   -9728.8789    2207.2581   -7521.6208    173.40742 
  161500    296.46975    596.95284    53878.296   -9738.6352    2241.9976   -7496.6376   -100.53542 
  161600    303.92444    193.54194    53770.785   -9688.2086    2298.3724   -7389.8362   -54.927841 
  161700    306.67489      24.0543    53611.574   -9713.7505    2319.1721   -7394.5784   -58.676054 
  161800    301.33289   -352.81914     53492.04   -9728.6141    2278.7743   -7449.8398   -82.165813 
  161900    293.61804    461.13668    53464.371   -9726.2309    2220.4321   -7505.7988    143.20798 
  162000    292.99023    514.17524    53547.232    -9749.267    2215.6845   -7533.5825    174.39951 
  162100    295.76363    73.059165    53742.534   -9758.9969    2236.6578   -7522.3392    61.388395 
  162200    298.44816   -263.98081        54074   -9746.3863     2256.959   -7489.4273   -90.108103 
  162300    295.06538   -342.22789    54442.909   -9704.0535    2231.3774   -7472.6761   -1.0486254 
  162400    302.94574   -49.991779     54766.07   -9694.5734    2290.9711   -7403.6022   -67.526225 
  162500    301.32201    109.55024    54792.101   -9606.2711     2278.692   -7327.5791    -106.1621 
  162600    304.07692   -179.13089    54818.643   -9645.4909    2299.5255   -7345.9655    146.79356 
  162700    295.30653    220.85767    54870.572   -9674.1382     2233.201   -7440.9372    207.80021 
  162800    304.99811   -270.08118    54897.982   -9773.4746    2306.4918   -7466.9828   -52.101909 
  162900    295.59857     111.8909    54801.846     -9708.09    2235.4096   -7472.6805    116.62738 
  163000    303.94442    74.627803     54871.89   -9731.5054    2298.5235   -7432.9819    18.125422 
  163100    297.21347    394.60241    55079.882   -9643.0887    2247.6219   -7395.4668    257.94274 
  163200    296.27374   -305.39076    55313.144   -9587.6117    2240.5154   -7347.0963    75.965517 
  163300    304.64059   -241.77479    55272.532   -9646.2983    2303.7881   -7342.5102    187.70877 
  163400    296.99757    1.2927234    55099.227    -9630.463    2245.9892   -7384.4738   -164.88334 
  163500    291.76308    -15.29698     54861.09   -9666.5174    2206.4043   -7460.1131    58.413376 
  163600    294.25063    350.44659    54591.025    -9700.274     2225.216    -7475.058   -111.39694 
  163700    299.31699   -144.52635    54390.671   -9714.1962    2263.5294   -7450.6668    403.88641 
  163800    305.38815    462.64942    54449.729   -9679.2063    2309.4415   -7369.7648    219.55086 
  163900    303.55892    8.5472292    54705.621   -9588.7344    2295.6082   -7293.1262    36.725465 
  164000     314.3949   -659.93604    54935.718   -9618.9833    2377.5533   -7241.4301   -113.73273 
  164100    301.88256   -100.19576    55052.005   -9609.6255     2282.931   -7326.6945    4.1727835 
  164200    298.18084   -489.99444    55025.062   -9652.0457    2254.9375   -7397.1082   -94.113255 
  164300    296.20839   -157.32462    54649.567   -9665.6499    2240.0212   -7425.6288    354.26814 
  164400    302.97716     200.5286    54323.895   -9739.1141    2291.2088   -7447.9053    547.35188 
  164500    290.47112    289.50337    54285.662   -9700.3475    2196.6341   -7503.7134    235.97196 
  164600    290.11619    315.80447    54523.476   -9738.6237      2193.95   -7544.6737    80.858398 
  164700    308.17881   -136.59862    54590.542   -9791.0569    2330.5453   -7460.5117    72.819819 
  164800      297.661    89.554782    54544.878   -9662.3157    2251.0063   -7411.3094    226.02103 
  164900    302.42639   -263.28365    54650.362    -9729.045    2287.0436   -7442.0013    142.73586 
  165000    292.74188    149.22881    54783.569   -9699.8849    2213.8064   -7486.0785   -126.14281 
  165100    297.83523    97.586226    54758.197   -9763.7151    2252.3239   -7511.3912    93.442791 
  165200    293.76943    20.326595    54638.653   -9824.7391     2221.577   -7603.1621   -139.66397 
  165300    285.27467   -15.673907    54471.237   -9796.3448    2157.3369   -7639.0078    51.249352 
  165400    293.18197   -96.631152    54265.931   -9808.8966    2217.1345   -7591.7621    382.35095 
  165500    298.98686   -92.306585    54057.125   -9787.6265    2261.0328   -7526.5936    153.32218 
  165600    295.16101   -457.75131    54039.963   -9738.7659    2232.1006   -7506.6653    235.48134 
  165700    291.15555    521.69456    54123.359    -9703.198      2201.81   -7501.3881   -104.67768 
  165800    297.01592    -422.4151    54308.532   -9736.3984     2246.128   -7490.2704    115.77205 
  165900    300.75006   -104.66635    54387.916   -9735.0594    2274.3667   -7460.6926    56.977039 
  166000    301.37574   -279.50417    54380.972   -9673.2144    2279.0983   -7394.1161   -170.78541 
  166100    295.97286    254.67733     54244.45   -9634.5412      2238.24   -7396.3011    20.562921 
  166200    303.22431   -51.116716    54246.247   -9762.9206    2293.0778   -7469.8429   -36.461833 
  166300    293.34691   -295.36613    54453.411   -9752.5165    2218.3818   -7534.1347    100.68382 
  166400     295.9594    138.86447    54550.456   -9756.1124    2238.1382   -7517.9742   -45.508219 
  166500    291.88906   -601.29038    54653.837   -9656.6523     2207.357   -7449.2952    165.55391 
  166600    300.56446   -168.36173    54642.411   -9694.9962    2272.9631    -7422.033     299.8753 
  166700    299.71151    352.20153    54627.822   -9717.7251    2266.5129   -7451.2122   -13.443926 
  166800    291.83359    414.88055    54720.695   -9676.0172    2206.9375   -7469.0796    62.504716 
  166900    296.59735   -78.045556    54884.175   -9691.1732    2242.9626   -7448.2106    30.862707 
  167000    298.70447   -93.739724    54906.107   -9661.9069    2258.8973   -7403.0095    148.51018 
  167100    307.57473   -136.82566    55001.617   -9620.9284     2325.977   -7294.9514    37.255241 
  167200    302.27096   -285.58382    55054.889   -9588.7614    2285.8682   -7302.8932    338.48163 
  167300     298.7803   -1025.9104    55094.927   -9647.2812    2259.4708   -7387.8104    255.99561 
  167400     297.4568   -845.53253    55070.432    -9681.398    2249.4621   -7431.9359    153.30957 
  167500    301.61645    -497.8773    54978.333    -9760.774    2280.9186   -7479.8553    304.72837 
  167600    300.51278   -466.48659    54860.274   -9784.8184    2272.5723   -7512.2461   -25.817346 
  167700    292.75011   -441.60898    54706.108   -9763.2115    2213.8686   -7549.3429    58.764832 
  167800    289.53911   -232.32938    54667.748   -9783.7224     2189.586   -7594.1364    103.27181 
  167900    294.19203    -67.55191    54721.629   -9786.1525    2224.7728   -7561.3797    41.470343 
  168000    303.00512   -363.68997    54724.346   -9772.9078    2291.4202   -7481.4876   -82.977026 
  168100    295.59828   -531.74813     54728.59   -9691.6508    2235.4074   -7456.2434     135.5035 
  168200    301.83779    149.69152    54657.787    -9717.628    2282.5925   -7435.0355    69.966373 
  168300    303.00448     520.2597    54616.992   -9769.9704    2291.4154    -7478.555   -144.25299 
  168400    294.01152   -318.42061    54713.106   -9789.6803    2223.4078   -7566.2725    92.539998 
  168500    294.56621   -341.36117    54657.665   -9812.8541    2227.6025   -7585.2516    242.27105 
  168600    294.20134   -255.34538     54587.91   -9761.1073    2224.8433   -7536.2641    267.15889 
  168700    299.73711     105.3127    54594.911   -9740.0287    2266.7065   -7473.3222    106.53623 
  168800    294.82667   -151.16537    54554.553   -9696.2542    2229.5722    -7466.682    346.06135 
  168900    298.27967   -415.80817    54652.085   -9713.2044    2255.6849   -7457.5195    166.22645 
  169000    308.14878    188.62867    54761.581   -9764.3523    2330.3182   -7434.0341    86.316175 
  169100    305.66011    521.15862    54742.041   -9686.3026    2311.4981   -7374.8045   -35.944389 
  169200    306.23343   -116.14052    54642.693   -9654.3532    2315.8337   -7338.5195   -242.03312 
  169300    302.21276   -313.51746    54531.176   -9702.4925    2285.4281   -7417.0644    88.756771 
  169400     302.9419   -236.57903    54489.539   -9760.7537    2290.9421   -7469.8116    66.553122 
  169500     297.5115   -600.94275    54435.212   -9750.7423    2249.8757   -7500.8665    298.45383 
  169600    299.50093   -283.25389     54376.83   -9768.4711    2264.9204   -7503.5507    474.77505 
  169700    291.91352   -976.98876     54593.55     -9713.88     2207.542    -7506.338   -35.877427 
  169800    300.65504   -795.74472    54755.571   -9690.5838    2273.6482   -7416.9356    171.52576 
  169900    294.51658   -17.042328    54750.338   -9604.2518    2227.2272   -7377.0247    186.95946 
  170000    299.81725   -271.03409    54795.288    -9651.349    2267.3125   -7384.0365    63.322787 
  170100    300.94476   -380.91259     54560.15   -9725.1969    2275.8391   -7449.3578    90.271165 
  170200    297.87113     308.1525    53965.618   -9761.1218    2252.5954   -7508.5264   -13.392246 
  170300    297.62412    421.20722    53522.029   -9781.3336    2250.7274   -7530.6062    395.48073 
  170400    294.65494    768.63418    53369.138   -9759.7925    2228.2735    -7531.519   -7.6476784 
  170500    298.22123    86.019849    53462.091   -9767.8403    2255.2429   -7512.5975   -137.66528 
  170600    306.48331    487.35186    53746.377    -9728.102    2317.7234   -7410.3786    150.10747 
  170700    305.79223   -96.540545    54082.214   -9679.4931    2312.4972   -7366.9959    3.7851739 
  170800    298.62453    64.647057     54291.04   -9682.1611    2258.2928   -7423.8683     169.6018 
  170900    295.14764   -458.19745    54568.088   -9714.0282    2231.9995   -7482.0288    73.377123 
  171000    291.90564   -380.79886    54834.564    -9703.545    2207.4824   -7496.0626   -8.9241186 
  171100    292.47371   -634.21875    54842.072    -9708.611    2211.7783   -7496.8327   -97.008429 
  171200    304.26287    104.85681    54562.083   -9696.1141    2300.9317   -7395.1824   -36.323889 
  171300    299.49949   -752.10746    54515.547   -9661.0689    2264.9095   -7396.1594    430.60621 
  171400    295.17048   -527.29484    54600.887   -9658.1511    2232.1722    -7425.979    166.33418 
  171500    296.24062   -295.83499    54630.989   -9706.7621    2240.2649   -7466.4972    63.030973 
  171600    299.00714   -410.91857    54673.186   -9778.9424    2261.1862   -7517.7562    99.281813 
  171700    291.94461   -45.407662    54776.044   -9731.9433    2207.7771   -7524.1662    169.08025 
  171800    296.77694     51.02057    54841.003   -9744.4916    2244.3207   -7500.1709   -34.409998 
  171900    303.32689   -5.8191035    54903.113   -9781.7831    2293.8535   -7487.9296    194.58078 
  172000    295.32308    173.91512    54909.454   -9714.8256    2233.3262   -7481.4994    50.444646 
  172100    296.56061    529.09658      54983.8   -9715.7967    2242.6847   -7473.1119   -114.84604 
  172200    301.24181    473.16678    55025.344   -9788.8667    2278.0855   -7510.7812    -21.38128 
  172300    289.63828     -93.3511    55007.646   -9796.4862    2190.3359   -7606.1503    147.52241 
  172400    292.73089    223.20277    54917.897   -9800.2066    2213.7232   -7586.4833    204.39415 
  172500     300.2929   -124.25378    54703.679   -9752.6287    2270.9096   -7481.7191    19.085867 
  172600    299.06677   -367.24351    54457.418   -9733.2964    2261.6372   -7471.6592    30.066803 
  172700     296.2393   -3.7295345    54367.326   -9726.9082     2240.255   -7486.6532   -208.73987 
  172800     295.8517    160.95593    54354.185   -9790.5586    2237.3238   -7553.2348    76.402082 
  172900    293.89026   -228.40146    54427.484   -9808.5142    2222.4907   -7586.0235    114.15626 
  173000    297.50436   -256.59526    54568.422   -9795.5134    2249.8217   -7545.6917    25.574851 
  173100    304.48911   -14.033976    54688.799    -9750.883    2302.6426   -7448.2404   -186.98859 
  173200    304.74991     51.61538    54663.667   -9745.6246    2304.6149   -7441.0098    54.205772 
  173300    301.11095    131.52625    54533.679    -9723.334    2277.0959   -7446.2381    104.64979 
  173400    295.61448   -259.81776    54218.624   -9707.8621    2235.5299   -7472.3322    35.882316 
  173500     303.4687    232.46811    53894.606   -9775.1819    2294.9259   -7480.2559    147.49599 
  173600    299.06013    190.21808    53985.935   -9785.5964     2261.587   -7524.0094   -22.310992 
  173700    297.44118    364.02704    54237.643   -9859.8412    2249.3439   -7610.4973    276.09542 
  173800    291.39182   -159.74725    54486.876   -9828.0678    2203.5967    -7624.471   -15.947303 
  173900    297.47062   -183.04572    54557.996   -9798.2761    2249.5666   -7548.7095    221.78155 
  174000    307.47711   -195.08072    54496.747   -9804.8793    2325.2388   -7479.6405   -192.95845 
  174100    289.83438   -87.130317    54381.643    -9680.455    2191.8189   -7488.6361    132.29226 
  174200    305.70136   -436.45329    54283.816   -9797.2293      2311.81   -7485.4193    63.517645 
  174300    293.51075    221.23509    54212.452   -9737.8447    2219.6208    -7518.224     -7.55968 
  174400    295.72957   -379.60339    54268.189    -9818.698    2236.4002   -7582.2978   -157.28036 
  174500    292.30504   -611.79305    54268.784   -9787.4025    2210.5028   -7576.8997   -161.18426 
  174600    304.48323    812.02202    54097.338   -9771.6187    2302.5981   -7469.0206    162.93556 
  174700    299.47744    -169.4849    54304.939   -9750.1206    2264.7428   -7485.3778   -47.837796 
  174800    294.15434    109.89664    54549.701   -9757.9869    2224.4878   -7533.4991    21.283493 
  174900    288.53568   -13.325333    54810.438   -9743.6749    2181.9977   -7561.6772    31.875449 
  175000    297.14565   -0.8284314    55110.417   -9752.3135    2247.1091   -7505.2044    44.898662 
  175100    297.68485    172.69291    55495.538   -9666.8257    2251.1866   -7415.6391    124.67895 
  175200    302.61221   -488.00053    55816.148   -9674.8616    2288.4489   -7386.4127    263.09917 
  175300    296.28838   -308.48752    55929.125   -9619.8908    2240.6261   -7379.2647    67.682078 
  175400    295.90424   -502.26858    55801.661   -9702.2849    2237.7211   -7464.5638    23.967323 
  175500     296.8229    49.362362    55402.111   -9759.3565    2244.6683   -7514.6882   -132.06207 
  175600     297.7788   -61.757271    54837.593   -9773.1398    2251.8971   -7521.2427    -288.0088 
  175700    297.89183   -95.447498    54557.857   -9812.1725    2252.7519   -7559.4206   -88.231305 
  175800    293.77366   -411.16075    54485.868   -9879.7027     2221.609   -7658.0937    91.525486 
  175900    293.81352   -219.10212    54453.673    -9878.664    2221.9104   -7656.7535    33.041448 
  176000    303.21174   -552.93909    54495.414   -9885.7212    2292.9827   -7592.7385   -291.35917 
  176100    297.01901   -772.89146    54519.403    -9764.239    2246.1514   -7518.0876    64.818938 
  176200    303.72026   -537.80364    54549.359   -9773.1114    2296.8283    -7476.283   -104.81847 
  176300    297.51442    259.66294    54419.529   -9703.9979    2249.8978   -7454.1001   -45.976905 
  176400    294.02032    264.74365    54228.921   -9703.2387    2223.4743   -7479.7644    40.963824 
  176500     294.3819    407.29383    54184.975   -9781.1978    2226.2087    -7554.989    69.592278 
  176600    294.75106    431.60272    54213.164    -9847.674    2229.0004   -7618.6736   -77.295539 
  176700    299.41828    -344.5264    54516.203   -9855.9771    2264.2954   -7591.6818    256.06161 
  176800     304.1032   -343.55805    54884.803   -9832.4709    2299.7242   -7532.7467    204.48608 
  176900    298.44571   -507.87732    55153.298   -9761.7905    2256.9405     -7504.85    11.936397 
  177000    304.02917   -1024.1185    55338.101   -9803.1058    2299.1644   -7503.9414    36.956928 
  177100     295.5232   -597.03711    55123.683   -9729.9556    2234.8396    -7495.116    235.68776 
  177200    298.97023   -521.40261    54789.085   -9766.2737    2260.9071   -7505.3666    43.758654 
  177300    296.18666   -667.01558    54579.642   -9735.7685    2239.8569   -7495.9116    354.62927 
  177400    303.67549   -620.40372    54558.819   -9741.5611    2296.4897   -7445.0714  -0.74061368 
  177500    295.71909   -59.365681    54489.012   -9678.7456     2236.321   -7442.4247   -82.672563 
  177600    293.85006   -118.26742    54433.181   -9734.2088    2222.1867   -7512.0221    186.37573 
  177700    295.95375    39.074546    54419.157   -9789.7568    2238.0955   -7551.6613    320.31825 
  177800    297.09718   -142.02305    54243.258   -9764.4327    2246.7425   -7517.6902    291.23098 
  177900    306.07973   -35.680451    53967.586   -9739.8069    2314.6714   -7425.1356    23.700838 
  178000    301.30801    581.81463    53818.651   -9730.4545    2278.5861   -7451.8684    148.21022 
  178100    299.42726    165.90674    53886.913   -9770.5865    2264.3633   -7506.2233    -32.46494 
  178200     298.1816    270.18382    53848.395   -9774.9951    2254.9432   -7520.0519   -28.008433 
  178300    293.70358   -259.87196    53861.085   -9721.8581     2221.079   -7500.7791    36.598948 
  178400    311.02435   -124.93469    54053.962    -9751.076    2352.0641   -7399.0118    174.25583 
  178500    298.82277    38.051718    54387.208   -9650.3719    2259.7919   -7390.5799    158.94259 
  178600    294.19441    52.849564    54717.466   -9613.2873    2224.7908   -7388.4965    80.167921 
  178700    295.32078   -218.94607    54900.608   -9738.3796    2233.3088   -7505.0708    20.238787 
  178800    297.91179   -163.93898    54951.089   -9777.5195    2252.9028   -7524.6167    34.318825 
  178900    296.84237   -569.62799    55060.598   -9768.9456    2244.8155   -7524.1301    -79.23995 
  179000    302.76399   -490.32764    55065.533   -9774.1207    2289.5967   -7484.5241    24.334541 
  179100    300.12687   -673.93299    54872.614   -9703.7271     2269.654   -7434.0731     229.2893 
  179200    304.68953   -196.07407    54397.084   -9638.2251    2304.1582   -7334.0669    5.9110436 
  179300    306.70128    294.49754     53930.37   -9634.8907    2319.3717    -7315.519    25.583925 
  179400    298.85604    109.68971    53812.138   -9716.0839    2260.0435   -7456.0403    120.01522 
  179500    297.21822    302.79654    53795.315   -9745.9212    2247.6579   -7498.2633   -147.11747 
  179600    293.58591    498.22171    53871.987   -9748.8543    2220.1892   -7528.6651    150.00698 
  179700    297.85689    517.82259    53984.354   -9769.5328    2252.4876   -7517.0452   -108.41149 
  179800    305.38726    274.22065     53990.01   -9775.3406    2309.4347   -7465.9059    -22.21824 
  179900    307.12801    82.534157    53964.697    -9800.552    2322.5988   -7477.9532    52.490836 
  180000    297.23528    20.538516    54044.509   -9757.7243    2247.7868   -7509.9375   -365.24775 
  180100    287.15471   -106.86394    54153.021   -9745.5121    2171.5544   -7573.9577   -66.607448 
  180200    302.90926    275.99818    54233.692   -9795.8592    2290.6953   -7505.1639    106.33363 
  180300    303.53774   -157.14141    54423.219   -9745.7813     2295.448   -7450.3333   -86.580435 
  180400    298.07901   -435.68087     54560.62   -9715.0951    2254.1674   -7460.9277    29.702543 
  180500    297.67769   -298.62741    54523.084   -9677.6169    2251.1325   -7426.4844    93.196546 
  180600    295.68167   -443.49306    54545.581   -9687.0054     2236.038   -7450.9675   -128.66562 
  180700    298.43047   -73.162601    54661.388    -9755.492    2256.8253   -7498.6667    8.1087272 
  180800    289.13853    6.8317568      54730.1   -9714.7115    2186.5567   -7528.1548   -69.933354 
  180900    296.19355   -68.206858    54695.683   -9713.5663    2239.9089   -7473.6573    302.87934 
  181000    300.53564    63.229926    54696.596   -9704.0897    2272.7452   -7431.3445   -143.11868 
  181100    304.78465    190.44628    54687.234   -9724.3268    2304.8776   -7419.4492     224.2527 
  181200    302.40722    179.34771    54617.218   -9709.7904    2286.8987   -7422.8917     30.38243 
  181300     291.2379   -587.18683    54617.445   -9724.4102    2202.4327   -7521.9775    4.1984634 
  181400    301.77486   -97.522924    54547.594   -9835.4861    2282.1166   -7553.3694    142.54409 
  181500    292.27095    -520.0211    54593.053    -9739.102     2210.245    -7528.857    131.27833 
  181600    294.12958   -506.27725    54666.987   -9674.9169    2224.3006   -7450.6163    215.18536 
  181700    303.46298   -1211.4804    54755.915   -9716.5568    2294.8827   -7421.6741     63.78496 
  181800    300.91767   -270.73293    54744.081   -9717.8968    2275.6342   -7442.2626  -0.59210186 
  181900    294.58873   -57.340151    54706.323   -9729.7372    2227.7728   -7501.9643   -41.214653 
  182000     294.7018   -834.92572    54799.105   -9763.5862    2228.6279   -7534.9583   -70.185526 
  182100     298.6167   -386.96444    54657.296   -9791.3637    2258.2336   -7533.1301    186.64149 
  182200    296.32058    634.07169    54220.736   -9756.0373    2240.8696   -7515.1677    72.825223 
  182300    293.59948    476.83927     53957.16   -9698.5494    2220.2918   -7478.2576   -35.093083 
  182400    300.00301    267.27357     53841.83   -9739.6355    2268.7173   -7470.9182    152.01539 
  182500    300.04012    -25.42989    53888.624   -9780.7305    2268.9979   -7511.7326    329.04338 
  182600    288.69705    138.63923    54075.051   -9755.6185    2183.2181   -7572.4004    -14.01899 
  182700    287.23001   -115.99763    54343.233   -9745.5693    2172.1238   -7573.4455    126.20392 
  182800    291.07766   -126.93287     54608.66    -9670.468     2201.221    -7469.247    220.24066 
  182900    293.41079    169.52802    54815.076   -9644.6872    2218.8649   -7425.8224    14.880877 
  183000     299.5862    612.26389    54872.827   -9686.4857    2265.5652   -7420.9204   -99.742298 
  183100    299.20597   -340.74528    55006.521   -9713.3585    2262.6898   -7450.6687     163.6234 
  183200     297.9548   -591.79954    54910.055   -9751.1639    2253.2281   -7497.9359    98.573411 
  183300    296.51128    -292.1975    54637.972    -9805.048    2242.3118   -7562.7362   -40.579398 
  183400     291.3073   -400.12679    54350.378   -9821.2528    2202.9576   -7618.2952    129.69524 
  183500     290.0332   -845.70971    54205.492   -9826.7834    2193.3225   -7633.4609    68.492969 
  183600     299.1557   -516.32706    53996.759   -9773.5891    2262.3097   -7511.2795   -284.84924 
  183700    298.54327    117.75329    54040.467   -9774.7683    2257.6783     -7517.09   -239.79868 
  183800    298.16155    -182.8947    54189.056   -9797.9967    2254.7916   -7543.2051    20.430105 
  183900    294.31913    -225.2444    54151.872   -9788.3706     2225.734   -7562.6366   -90.989218 
  184000    293.36515    -329.5568    54096.121   -9823.8401    2218.5197   -7605.3204      152.284 
  184100    292.37425   -42.654002    53972.559   -9790.7618    2211.0262   -7579.7355    132.90726 
  184200     298.1101    382.19178    54036.311   -9748.8562    2254.4025   -7494.4537    102.11301 
  184300    300.73303   -199.01028     54068.33   -9707.4674    2274.2379   -7433.2295      620.201 
  184400    304.22763   -176.26398     54133.69   -9707.2107    2300.6652   -7406.5455   -89.817081 
  184500     307.0798   -158.57684    54109.805   -9742.8568    2322.2342   -7420.6226   -80.940253 
  184600    295.30162    177.40643    53880.949   -9746.9591    2233.1639   -7513.7952    231.23273 
  184700    291.89146    550.99749    53765.481   -9735.1872    2207.3752    -7527.812    164.84008 
  184800    301.13954    142.94623    53891.349   -9796.1824    2277.3121   -7518.8703   -197.39831 
  184900    299.77476    492.02944    54088.351   -9775.7227    2266.9912   -7508.7315   -108.82272 
  185000    295.14712    194.88389    54293.884     -9703.86    2231.9956   -7471.8645    124.47743 
  185100    297.39005   -95.431932    54469.029    -9634.254    2248.9573   -7385.2967   -116.93088 
  185200    295.95343   -503.10741    54578.175   -9579.9524    2238.0931   -7341.8593   -316.05352 
  185300    299.60389   -187.19031    54568.781   -9636.1869     2265.699   -7370.4879    24.966575 
  185400    299.94601   -413.19521     54598.65   -9709.3989    2268.2862   -7441.1126    169.60896 
  185500    295.45146   -142.15621    54699.717   -9697.6594     2234.297   -7463.3624    156.05854 
  185600    293.92345   -521.06946    54821.235    -9680.878    2222.7418   -7458.1362    96.448766 
  185700    299.94096   -334.20895    54894.371   -9709.8916     2268.248   -7441.6435   -5.7015958 
  185800    294.14309   -62.204923    55116.068   -9663.7906    2224.4027   -7439.3878   0.12401874 
  185900    296.20408    -254.8861    55222.483   -9683.6442    2239.9886   -7443.6556    69.528875 
  186000    293.16746   -297.39017    55077.877   -9647.1533    2217.0247   -7430.1286    139.86175 
  186100       300.79    114.47465    54829.418     -9652.81    2274.6688   -7378.1413    256.68627 
  186200    304.05084    555.52274    54641.721   -9610.7408    2299.3283   -7311.4125   -19.401944 
  186300    303.42459    102.67261    54453.934   -9623.5201    2294.5923   -7328.9278   -27.776598 
  186400    299.28469   -150.69874    54182.346   -9677.9273    2263.2852   -7414.6421    109.15386 
  186500    299.94901   -301.60999    53931.933   -9744.8214     2268.309   -7476.5124    -10.75279 
  186600    297.80603    654.63578    53833.362   -9733.4171    2252.1031    -7481.314    24.702633 
  186700    291.83967    -86.98955    54035.097     -9696.86    2206.9835   -7489.8764   -222.69891 
  186800    299.39654    -339.7123    54236.894   -9717.4383     2264.131   -7453.3073     101.8321 
  186900    308.00386   -240.62693    54381.888   -9730.6151    2329.2222   -7401.3929    57.601803 
  187000    300.72193    226.22767    54549.366   -9652.3492     2274.154   -7378.1952    132.96244 
  187100     298.5173   -15.247675    54699.147   -9683.0948    2257.4819   -7425.6128    278.51899 
  187200    298.82975   -649.69018    54985.891   -9756.2521    2259.8447   -7496.4074   -89.123437 
  187300    290.95592   -364.07412    55128.797   -9708.5252    2200.3003   -7508.2249      177.427 
  187400    302.51322   -594.58115    55274.879   -9740.9164    2287.7003   -7453.2161    181.19739 
  187500    304.36936   -824.83423    55379.189   -9719.5206     2301.737   -7417.7836    157.05208 
  187600    307.99885   -711.66722    55433.325   -9653.5403    2329.1844   -7324.3559    174.97093 
  187700     308.2989   -450.90285     55353.29    -9656.386    2331.4534   -7324.9326    65.004758 
  187800    300.96901   -64.769496    55081.081   -9685.9533    2276.0225   -7409.9308    96.632577 
  187900     301.2528     52.40446    54431.779   -9744.2821    2278.1686   -7466.1135    17.043293 
  188000    299.28581    159.49142    53898.763   -9779.9245    2263.2936    -7516.631   -110.62327 
  188100    297.16094    203.46794    53613.542   -9810.1438    2247.2246   -7562.9192   -96.019618 
  188200    293.68563    299.09667    53517.683   -9765.3836    2220.9432   -7544.4403   -8.9073854 
  188300    308.47568    159.03052    53568.009   -9769.7338    2332.7903   -7436.9435   -66.921719 
  188400    298.17289    496.11116     53717.15   -9676.5784    2254.8773   -7421.7011   -193.58659 
  188500    299.38439    343.30939    53975.583   -9739.9935    2264.0391   -7475.9543   -244.73213 
  188600    300.61626    182.05437    54169.932   -9790.8432    2273.3548   -7517.4883   -378.22123 
  188700    297.02345   -174.39942    54289.482   -9798.2793    2246.1849   -7552.0944   -38.610513 
  188800     304.5601   -335.29251    54299.747    -9847.723    2303.1794   -7544.5435    151.51391 
  188900     292.6931    126.23632    54362.581   -9735.7609    2213.4375   -7522.3234   -65.694058 
  189000    303.87759   -918.20929    54460.966   -9719.7165    2298.0181   -7421.6984    167.49298 
  189100    297.93541   -1284.2126    54416.053   -9668.6033    2253.0815   -7415.5219    155.42567 
  189200    300.40579   -337.45857     54206.72   -9741.4103    2271.7632   -7469.6471    26.405515 
  189300    302.33796   -80.458119    54002.202   -9803.9059    2286.3749    -7517.531    188.23797 
  189400    301.54768    197.57036    53878.502   -9826.8675    2280.3986   -7546.4689    151.17136 
  189500    300.53375   -158.06079    53854.003   -9834.5069    2272.7309    -7561.776   -43.198762 
  189600    297.05543    250.13728    53492.408   -9818.5281    2246.4267   -7572.1014    -23.87293 
  189700    304.74833    517.70116    53242.409   -9804.8681    2304.6029   -7500.2652   -17.074904 
  189800    302.80306    133.58544     53483.66   -9750.8095    2289.8922   -7460.9174   -59.991678 
  189900    297.45604    356.60387    53765.237   -9691.7234    2249.4563   -7442.2671   -198.59828 
  190000    301.15391    201.50201    53954.691   -9719.8806    2277.4207   -7442.4598    129.33806 
  190100     298.3331     379.6172     54049.16   -9721.8101    2256.0889   -7465.7212   -309.87177 
  190200    297.16578   -75.654007    54103.827    -9782.448    2247.2613   -7535.1868    -23.53604 
  190300    295.00475   -663.93181    54036.388   -9777.8361    2230.9189   -7546.9173    -102.9493 
  190400    304.89688   -86.107921    53933.985   -9803.9281    2305.7263   -7498.2018     198.5735 
  190500    297.23096   -123.25139    53895.054   -9678.7884    2247.7542   -7431.0342    109.62052 
  190600    307.75514    380.07769    53773.411   -9791.1743    2327.3413    -7463.833    118.84644 
  190700    298.73085    77.933964    53678.438   -9765.4377    2259.0968   -7506.3409    283.20897 
  190800    291.23793    361.30415    53566.687   -9730.6277     2202.433   -7528.1947    240.40846 
  190900    295.04499    17.819183    53591.586   -9710.1235    2231.2232   -7478.9004   -4.4338015 
  191000     299.6824    357.04914    53624.492   -9649.4158    2266.2928    -7383.123    40.428287 
  191100    300.05811   -106.79501    53692.729   -9641.2715    2269.1339   -7372.1375    97.524465 
  191200    304.93743   -996.20812    53713.315   -9723.2204    2306.0329   -7417.1875   -116.87172 
  191300    296.07855    285.27374    53448.147   -9702.1756    2239.0393   -7463.1364     26.69155 
  191400    297.78533    317.69835    53249.208   -9727.1189    2251.9465   -7475.1724    75.955542 
  191500    306.14101   -71.266337    53251.822   -9798.4285    2315.1348   -7483.2937   -37.288995 
  191600    292.72114   -303.96934    53290.108   -9737.5295    2213.6495     -7523.88    67.468223 
  191700      288.839   -519.66089    53368.253   -9766.5988    2184.2916   -7582.3073   -221.98753 
  191800     290.0868   -248.10923    53234.117   -9786.7146    2193.7278   -7592.9868    406.98653 
  191900    303.44955   -343.94396    53372.866   -9800.5473    2294.7811   -7505.7662   -307.08217 
  192000     300.0725   -284.69723    53684.373   -9733.5218    2269.2428    -7464.279     157.7199 
  192100    296.45091   -457.49055    54032.502   -9708.1179    2241.8552   -7466.2628    9.1342925 
  192200    297.43108    213.09862    54261.607   -9726.5167    2249.2676   -7477.2491    36.546361 
  192300    297.00943   -235.84049    54419.699   -9704.8863    2246.0789   -7458.8074   -214.73333 
  192400    293.37765    127.15699    54455.129    -9623.696    2218.6142   -7405.0817    42.560155 
  192500    293.51628    132.99492    54407.629   -9556.5973    2219.6626   -7336.9347   -91.464027 
  192600    301.10319     343.7485    54335.338   -9609.1993    2277.0372   -7332.1621    122.15455 
  192700    296.99741    43.704688    54313.439   -9678.0644     2245.988   -7432.0764    72.697092 
  192800    302.89138   -155.57141    54267.396   -9766.3433      2290.56   -7475.7832    141.41275 
  192900    292.88062   -118.33489    54225.786   -9703.7105    2214.8555   -7488.8549    380.08206 
  193000    292.96313   -176.82206    54357.775   -9689.7344    2215.4795   -7474.2549    72.800037 
  193100    309.41206    -639.3207    54531.543   -9746.3308    2339.8715   -7406.4593    229.33815 
  193200    293.95984   -542.68424    54540.407   -9584.5048    2223.0169   -7361.4879   -240.45557 
  193300     300.2373   -155.74138    54546.787   -9622.3185    2270.4891   -7351.8294    381.28863 
  193400    293.86622   -301.75774    54663.707   -9665.9402     2222.309   -7443.6313   -26.295933 
  193500    295.32179   -48.079472    54806.488   -9717.2521    2233.3165   -7483.9356    102.22627 
  193600    298.51949    -196.1642    54951.696   -9710.9066    2257.4985   -7453.4082   -116.89185 
  193700    296.37796     185.3372    55025.818   -9685.1031    2241.3035   -7443.7996   -211.20157 
  193800    298.57806   -433.26036    55172.405    -9664.738    2257.9414   -7406.7966   -149.09718 
  193900    303.29823   -742.08656    55180.608   -9646.1326    2293.6368   -7352.4958    13.641056 
  194000    307.23223   -329.03421    55064.023   -9648.4489     2323.387    -7325.062   -86.553151 
  194100    293.48497   -376.92129    54845.514   -9621.9033    2219.4258   -7402.4774   -114.74382 
  194200    301.37454   -14.047532    54487.942   -9729.1966    2279.0892   -7450.1073    67.560952 
  194300    301.27908    4.7486218    54179.671   -9731.9889    2278.3673   -7453.6216    134.75544 
  194400     299.9962    28.486678    54157.842   -9754.2008    2268.6658    -7485.535   -124.97486 
  194500    291.02361    434.02032    54286.843   -9744.6008    2200.8122   -7543.7885    506.89428 
  194600    298.21444   -91.766566    54470.054   -9880.4519    2255.1916   -7625.2603   -51.419943 
  194700    292.80705       370.47    54454.041   -9833.1602    2214.2992    -7618.861    304.57379 
  194800    295.17571    696.34534     54380.12   -9746.4602    2232.2117   -7514.2485    246.12805 
  194900    294.61739   -87.449705    54342.638   -9709.9967    2227.9896   -7482.0071    138.99106 
  195000    298.58562    576.37372    54149.716   -9732.0092    2257.9986   -7474.0106    277.14526 
  195100    301.34765    236.58199    53923.282   -9737.2562    2278.8859   -7458.3703   -271.32958 
  195200    298.66868   -684.43948    53936.866   -9791.2083    2258.6267   -7532.5816    104.58024 
  195300    290.22287    68.083022    54170.967   -9788.9513    2194.7568   -7594.1945   -48.530719 
  195400    299.50501   -356.00353    54466.116   -9821.7445    2264.9513   -7556.7932   -162.89315 
  195500    300.17121    -220.8961    54638.718    -9777.201    2269.9892   -7507.2117   -200.30657 
  195600    293.44545   -737.70297    54784.838   -9701.0095    2219.1269   -7481.8825   -176.61773 
  195700    300.54385    -364.5728    54728.446   -9739.8417    2272.8073   -7467.0344    11.254989 
  195800    299.67407    -253.5178    54666.796   -9750.0842    2266.2297   -7483.8545    63.754652 
  195900    297.22667    163.75386    54536.714   -9778.2274    2247.7217   -7530.5057     2.509445 
  196000     287.2631   -76.261303    54349.693   -9770.4644    2172.3741   -7598.0904    116.99881 
  196100    295.63961    109.74653    54172.013   -9876.5822    2235.7199   -7640.8623    132.72723 
  196200    288.54797     695.9453    54124.971   -9745.9143    2182.0906   -7563.8237   -18.873039 
  196300    296.75622    374.56618    54245.168   -9764.1355     2244.164   -7519.9715    79.115074 
  196400    293.95615    369.69714    54458.103   -9704.1056     2222.989   -7481.1166   -156.74848 
  196500    299.12456    30.782951    54789.754   -9699.8404    2262.0741   -7437.7663   -191.45467 
  196600    300.27496    9.0475357    55110.206   -9714.3144    2270.7739   -7443.5405   -158.56086 
  196700    295.55109   -694.43384    55244.422   -9712.7314    2235.0505   -7477.6809    103.87185 
  196800    295.09749   -877.52986    55069.024   -9711.5862    2231.6202    -7479.966   -39.761457 
  196900    299.02799   -116.01531    54802.231   -9757.3241    2261.3439   -7495.9803    71.668875 
  197000    294.71145   -154.45281    54745.568   -9694.9915    2228.7008   -7466.2907    18.396025 
  197100    298.62203   -438.50146    54862.024   -9649.7483    2258.2739   -7391.4744   -97.750863 
  197200    301.83701   -213.69698    54762.406   -9612.0629    2282.5866   -7329.4763    86.455707 
  197300     305.1758   -106.05074    54640.298   -9676.1718    2307.8355   -7368.3362    119.27822 
  197400    297.53347    184.53812    54592.282   -9688.6549    2250.0419    -7438.613   -48.273567 
  197500    295.67105    326.64282    54475.249   -9685.5477    2235.9576   -7449.5901    84.652606 
  197600    301.11442    570.25947      54207.1   -9716.4666    2277.1221   -7439.3445   -142.39719 
  197700     298.9691    400.22386    53902.211   -9701.3191    2260.8985   -7440.4206    8.4610183 
  197800    293.92047   -350.67857    53726.126   -9642.7206    2222.7192   -7420.0014   -53.164251 
  197900    301.74137   -15.376531    53571.684   -9686.3439    2281.8633   -7404.4806    103.35358 
  198000    304.72327   -15.728729    53658.107   -9746.0191    2304.4134   -7441.6057   -75.179967 
  198100    298.92945    370.84229     53859.05   -9777.6729    2260.5987   -7517.0741    101.98457 
  198200    294.01604     -505.977    54115.026   -9755.5312     2223.442   -7532.0892   -44.787629 
  198300    300.51966   -269.28584    54106.431   -9774.2324    2272.6244    -7501.608    332.74165 
  198400     298.6855    252.83039    54028.925   -9716.5102    2258.7538   -7457.7564    93.806629 
  198500    304.64787   -195.14588    54039.565   -9673.6791    2303.8432   -7369.8359   -11.296415 
  198600    304.88542   -583.63489    54149.008    -9679.154    2305.6396   -7373.5144    31.220089 
  198700    303.50272   -71.486783    54235.654   -9741.6184    2295.1832   -7446.4352   -44.628833 
  198800    296.69178    -145.4727    54352.284   -9728.1015    2243.6767   -7484.4248    211.16122 
  198900    300.47546   -386.32063     54350.34   -9757.6293    2272.2901   -7485.3392   -175.39494 
  199000    302.93894   -272.54114    54390.133   -9760.8589    2290.9197   -7469.9391   -65.148944 
  199100    291.99658    -267.7105    54489.101   -9719.2362    2208.1702    -7511.066   -228.10392 
  199200    296.76753    86.770928    54438.532   -9782.1766    2244.2496    -7537.927   -81.954535 
  199300     292.1754   -120.39307    54364.685   -9730.0703    2209.5225   -7520.5478    99.226431 
  199400     303.9257     185.4032    54169.833   -9720.6874    2298.3819   -7422.3055   -112.14702 
  199500    297.22495   -439.24504    53988.962   -9650.1202    2247.7087   -7402.4115    42.093726 
  199600    300.05549   -356.88851    53904.671   -9702.0632    2269.1142    -7432.949   -26.349606 
  199700    294.90325    362.50144    53787.931   -9753.5464    2230.1513   -7523.3952   -125.03188 
  199800    292.88322   -206.25188    53715.584    -9780.771    2214.8752   -7565.8958   -29.598767 
  199900    301.40996    274.14565    53631.401   -9838.8059    2279.3571   -7559.4488   -287.25433 
  200000      293.664    217.16662    53639.137   -9733.7292    2220.7797   -7512.9495    87.075588 
  200100    299.49807    400.46604     53659.64   -9701.8558    2264.8987   -7436.9571     117.2255 
  200200    303.60414    215.06915    53658.755   -9719.7969    2295.9502   -7423.8467   -116.04433 
  200300    302.96199    25.298481    53787.695    -9740.226     2291.094    -7449.132    481.67493 
  200400    297.91263    545.70165    54107.185   -9736.0352    2252.9092    -7483.126   -22.950598 
  200500    290.57445   -296.71818    54597.955   -9710.8233    2197.4156   -7513.4077    14.826659 
  200600    296.49085   -447.86274    54894.314   -9732.4585    2242.1572   -7490.3013    98.550623 
  200700    303.81531   -192.36688     54984.97   -9679.0573    2297.5471   -7381.5102   -270.12386 
  200800     299.8036   -286.90079    55012.216   -9658.3131    2267.2093   -7391.1038    105.04935 
  200900    301.43504    36.448213    54898.915    -9715.468    2279.5468   -7435.9213    -163.5608 
  201000    293.12332   -196.06781    54754.033   -9700.1684    2216.6909   -7483.4775    210.78158 
  201100    297.10298   -464.77974    54641.786   -9772.1744    2246.7864   -7525.3881    25.596541 
  201200    296.57355   -168.80001    54421.631   -9672.8736    2242.7826    -7430.091   -13.989636 
  201300    306.10849   -635.03645    54099.229   -9658.6923    2314.8889   -7343.8034    286.77554 
  201400    301.07131   -451.54324     53913.38   -9656.4885    2276.7961   -7379.6923   -56.102431 
  201500    297.84542    -373.1365    53848.894   -9672.1385    2252.4009   -7419.7375    20.706293 
  201600    294.75726    41.940939     53783.61   -9684.8242    2229.0473   -7455.7769    280.78063 
  201700    300.28831   -465.11314    53660.843   -9793.8798    2270.8748    -7523.005   -24.741975 
  201800    287.13826    63.265584    53534.311   -9776.0524      2171.43   -7604.6224    207.02899 
  201900    296.07468    628.97869    53500.694    -9829.546      2239.01   -7590.5359    -41.89293 
  202000    294.50038    114.66979    53662.716   -9793.6753    2227.1047   -7566.5706    152.51458 
  202100    306.63157    158.20998     53976.75   -9842.9386    2318.8446    -7524.094   -209.18104 
  202200    296.23594   -299.43191    54392.998    -9742.145    2240.2295   -7501.9155   -133.38605 
  202300       302.04     35.57383    54636.144   -9786.6441    2284.1216   -7502.5225   -88.167204 
  202400    295.03925   -912.38577     54673.63   -9737.8211    2231.1798   -7506.6413   -237.73264 
  202500    292.55747   -202.79781    54438.974   -9671.3238    2212.4118    -7458.912    8.4116437 
  202600    301.23441   -294.84468    54198.849   -9723.8036    2278.0295   -7445.7741    55.936913 
  202700    298.54976   -854.50938    53986.924    -9747.095    2257.7273   -7489.3677    93.393935 
  202800     295.3193  -0.42426844    53612.307   -9805.3961    2233.2976   -7572.0985   -59.861897 
  202900    290.67124   -290.02939    53481.691   -9765.9312    2198.1475   -7567.7837    25.520229 
  203000    293.18386   -153.35888    53471.991   -9719.6298    2217.1487   -7502.4811    282.59851 
  203100    301.82707    147.52344    53484.464   -9713.2579    2282.5114   -7430.7465    322.55586 
  203200     303.9921    111.55246    53673.605    -9725.344     2298.884     -7426.46    98.603191 
  203300    297.84642   -415.23851    53882.956   -9734.9107    2252.4085   -7482.5023   -20.939987 
  203400    296.63538    160.82282     53931.88   -9746.9701    2243.2502   -7503.7198    64.486072 
  203500    293.45475    757.40366     53961.13   -9741.6307    2219.1973   -7522.4334    139.61358 
  203600    297.93182    408.85599    54218.523   -9713.1149    2253.0543   -7460.0606    316.44414 
  203700    301.41691   -501.28996    54481.349   -9655.5789    2279.4096   -7376.1692   -246.91955 
  203800    299.39543    -672.7045    54507.563   -9658.5639    2264.1226   -7394.4414   -37.115103 
  203900    298.41789   -543.57185    54374.196   -9729.9058    2256.7301   -7473.1756    228.74442 
  204000    296.33936   -398.99802    54107.802   -9769.9899    2241.0116   -7528.9783   -23.698232 
  204100    304.28553   -661.99665    53777.596   -9838.6455    2301.1031   -7537.5424    222.74598 
  204200      292.497   -463.44719    53475.005   -9769.4325    2211.9545    -7557.478    316.93563 
  204300     298.1178    520.19548    53350.735   -9773.4558    2254.4607   -7518.9951    118.00993 
  204400    308.42162    227.20832    53446.686   -9745.2878    2332.3815   -7412.9064    43.113419 
  204500    298.79097   -201.15078    53617.219   -9699.7611    2259.5515   -7440.2097   -26.408155 
  204600    299.43951    547.59202    53768.119   -9806.1947    2264.4559   -7541.7388    105.18016 
  204700    300.24743    647.57347        53861   -9819.2964    2270.5657   -7548.7306    108.97157 
  204800    297.13132    246.90489    53963.228   -9809.6879    2247.0006   -7562.6873   -232.68611 
  204900    293.98873   -263.48524    54082.342   -9756.5607    2223.2354   -7533.3252    116.44916 
  205000    298.27311    521.48788    54030.875   -9730.4275    2255.6352   -7474.7922    306.10778 
  205100     301.6646    237.00995    54055.211    -9733.387    2281.2828   -7452.1042    -108.1127 
  205200     294.0611   -545.82805    54180.969   -9800.5188    2223.7827   -7576.7361    271.71473 
  205300    286.26525   -46.970734    54405.422   -9768.3677     2164.828   -7603.5397   -230.36505 
  205400    294.37381   -99.517249    54562.276   -9779.7427    2226.1475   -7553.5952    168.12755 
  205500    303.04496   -557.51564    54678.664   -9784.4748    2291.7215   -7492.7534   -58.543079 
  205600    303.43851   -821.80035    54694.621     -9753.52    2294.6976   -7458.8225    49.195306 
  205700    298.18778    -498.3279    54634.301   -9718.6661      2254.99   -7463.6762   -173.71155 
  205800    292.36796   -597.07406    54423.359   -9727.9187    2210.9787     -7516.94   -109.08262 
  205900    295.40899   -502.61983     54094.62   -9829.7398    2233.9759   -7595.7639    293.52787 
  206000      292.675   -167.82046    53810.772   -9834.2028    2213.3006   -7620.9023    292.48348 
  206100    298.03917   -180.67773    53786.395   -9806.9318    2253.8661   -7553.0657    257.37021 
  206200    299.55844   -93.382464     53855.51   -9742.4188    2265.3553   -7477.0635    107.36615 
  206300     294.1731   -209.75135    53942.391   -9728.4395    2224.6297   -7503.8098    50.070969 
  206400    291.55052   -816.26726    53986.915   -9730.6034    2204.7969   -7525.8065   -195.11832 
  206500    290.25855    598.14838     53812.56   -9725.1952    2195.0266   -7530.1686    236.27441 
  206600    303.44176   -118.73591    53848.804   -9775.5402    2294.7222   -7480.8179    115.99507 
  206700    305.59456    128.51926    54022.186   -9738.3011    2311.0024   -7427.2987    519.21066 
  206800    302.72753   -343.61751    54375.864   -9751.9775     2289.321   -7462.6565    347.76416 
  206900    295.70038    46.178886    54558.279   -9786.4966    2236.1794   -7550.3172    129.78279 
  207000    295.77736    24.967751    54503.574   -9788.1691    2236.7616   -7551.4074   -194.64257 
  207100    300.33771    122.10508    54208.702   -9794.0278    2271.2484   -7522.7794    305.30653 
  207200    300.88143   -532.04421    54179.058   -9754.9138    2275.3601   -7479.5537   -36.297452 
  207300    298.11673   -371.20316    54332.486   -9724.8214    2254.4526   -7470.3688    304.58485 
  207400    296.67899    -415.0964    54375.515   -9753.9664      2243.58   -7510.3864    200.98291 
  207500    291.51446   -587.31863    54282.113   -9750.9305    2204.5242   -7546.4062     298.6218 
  207600    295.56878    -356.3654    54217.691   -9789.4744    2235.1843   -7554.2902    286.96602 
  207700    297.60442   -230.17633     54228.33   -9732.9608    2250.5784   -7482.3824   -54.583341 
  207800    297.50759    197.25378    54259.633   -9679.3898    2249.8461   -7429.5437    208.03205 
  207900    298.66862   -375.77067     54177.04   -9679.9833    2258.6262   -7421.3572   -359.72705 
  208000    299.54075    27.360487    53787.092   -9750.7176    2265.2216   -7485.4961   -32.136839 
  208100     299.8262   -294.29322    53646.657   -9798.7902    2267.3802     -7531.41   -74.875747 
  208200    289.48808   -572.12139    53737.893   -9714.5449    2189.2001   -7525.3448    31.121726 
  208300    300.30891   -722.56252      53692.2    -9742.775    2271.0306   -7471.7444   -26.839457 
  208400     301.2113   -80.180832    53498.606    -9696.461    2277.8548   -7418.6062    13.824718 
  208500    306.48596    315.06211    53555.989   -9703.6029    2317.7434   -7385.8595   -33.595254 
  208600    297.91561   -102.71129    53529.885    -9717.431    2252.9317   -7464.4993   -9.9978914 
  208700    302.04446    128.94943    53377.955   -9818.8446    2284.1554   -7534.6892   -60.858805 
  208800    301.11159   -470.67234    53358.903    -9834.342    2277.1007   -7557.2413   -220.68421 
  208900    293.32599     86.19687    53476.799   -9749.0439    2218.2236   -7530.8203     39.81511 
  209000    297.21612   -75.961985    53643.185   -9714.4501     2247.642   -7466.8082    -73.03544 
  209100    299.66131   -337.09245    53879.145   -9659.8497    2266.1333   -7393.7165    256.95824 
  209200     300.6617   -530.40559    54137.587   -9679.4077    2273.6985   -7405.7091   -457.12923 
  209300    299.23745   -425.52497     54097.26   -9698.8964    2262.9279   -7435.9685    84.574919 
  209400    301.58206   -418.03345    54085.928   -9783.9007    2280.6586   -7503.2421   -62.640194 
  209500    296.51688   -681.64355    54127.215   -9784.2902    2242.3541   -7541.9361   -159.34218 
  209600    293.50266   -301.45527    53951.235   -9740.8934    2219.5596   -7521.3338    214.71077 
  209700    297.62198     26.04149    53783.195   -9741.2186    2250.7112   -7490.5074    33.206006 
  209800    297.75489   -499.06818    53754.096   -9733.9063    2251.7163     -7482.19    128.75439 
  209900    299.50633   -146.11846    53741.246   -9771.9265    2264.9612   -7506.9653   -23.387225 
  210000    291.11243   -32.175412    53807.183   -9778.2583     2201.484   -7576.7744    148.87433 
Loop time of 8912.93 on 1 procs for 200000 steps with 3438 atoms

Performance: 3.878 ns/day, 6.190 hours/ns, 22.439 timesteps/s
99.9% CPU use with 1 MPI tasks x 1 OpenMP threads

MPI task timing breakdown:
Section |  min time  |  avg time  |  max time  |%varavg| %total
---------------------------------------------------------------
Pair    | 7681.3     | 7681.3     | 7681.3     |   0.0 | 86.18
Bond    | 42.759     | 42.759     | 42.759     |   0.0 |  0.48
Kspace  | 270.36     | 270.36     | 270.36     |   0.0 |  3.03
Neigh   | 638.63     | 638.63     | 638.63     |   0.0 |  7.17
Comm    | 163.68     | 163.68     | 163.68     |   0.0 |  1.84
Output  | 0.15078    | 0.15078    | 0.15078    |   0.0 |  0.00
Modify  | 113.41     | 113.41     | 113.41     |   0.0 |  1.27
Other   |            | 2.672      |            |       |  0.03

Nlocal:    3438 ave 3438 max 3438 min
Histogram: 1 0 0 0 0 0 0 0 0 0
Nghost:    14247 ave 14247 max 14247 min
Histogram: 1 0 0 0 0 0 0 0 0 0
Neighs:    1.50223e+06 ave 1.50223e+06 max 1.50223e+06 min
Histogram: 1 0 0 0 0 0 0 0 0 0

Total # of neighbors = 1502233
Ave neighs/atom = 436.95
Ave special neighs/atom = 2.42932
Neighbor list builds = 18495
Dangerous builds = 8145
  unfix label1						# Erase time evolution scheme
							#
#=======================================================#

Total wall time: 2:28:48
